fcc: Ni Header      (comment)
3.53000000
  0.50000000  0.50000000  0.00000000
  0.00000000  0.50000000  0.50000000
  0.50000000  0.00000000  0.50000000
   Ni
    1
Selective Dynamics
Cartesian
  0.00000000  0.00000000  0.00000000
