3D\Atomistic
  1
     7.4942656     0.0000000    -0.0000000
     0.0000000     7.4942656    -0.0000000
     0.0000000     0.0000000     7.4942656
     C
    32
Direct
     0.0706343     0.0706343     0.0706343  
     0.9293657     0.4293657     0.5706343  
     0.4293657     0.5706343     0.9293657  
     0.5706343     0.9293657     0.4293657  
     0.8206343     0.3206343     0.6793657  
     0.1793657     0.1793657     0.1793657  
     0.3206343     0.6793657     0.8206343  
     0.6793657     0.8206343     0.3206343  
     0.3206343     0.8206343     0.6793657  
     0.8206343     0.6793657     0.3206343  
     0.6793657     0.3206343     0.8206343  
     0.4293657     0.9293657     0.5706343  
     0.9293657     0.5706343     0.4293657  
     0.5706343     0.4293657     0.9293657  
     0.0706343     0.5706343     0.5706343  
     0.9293657     0.9293657     0.0706343  
     0.4293657     0.0706343     0.4293657  
     0.8206343     0.8206343     0.1793657  
     0.1793657     0.6793657     0.6793657  
     0.3206343     0.1793657     0.3206343  
     0.3206343     0.3206343     0.1793657  
     0.8206343     0.1793657     0.8206343  
     0.4293657     0.4293657     0.0706343  
     0.9293657     0.0706343     0.9293657  
     0.5706343     0.0706343     0.5706343  
     0.0706343     0.9293657     0.9293657  
     0.6793657     0.1793657     0.6793657  
     0.1793657     0.8206343     0.8206343  
     0.1793657     0.3206343     0.3206343  
     0.0706343     0.4293657     0.4293657  
     0.5706343     0.5706343     0.0706343  
     0.6793657     0.6793657     0.1793657  
