3D\Atomistic                            
1
7.49427       0      -0
      0 7.49427      -0
      0       0 7.49427
   C
  32
Cartesian
0.529352 0.529352 0.529352  
6.96491 3.21778 4.27649  
3.21778 4.27649 6.96491  
4.27649 6.96491 3.21778  
6.15005 2.40292 5.09135  
1.34421 1.34421 1.34421  
2.40292 5.09135 6.15005  
5.09135 6.15005 2.40292  
2.40292 6.15005 5.09135  
6.15005 5.09135 2.40292  
5.09135 2.40292 6.15005  
3.21778 6.96491 4.27649  
6.96491 4.27649 3.21778  
4.27649 3.21778 6.96491  
0.529352  4.27649  4.27649  
 6.96491  6.96491 0.529352  
 3.21778 0.529352  3.21778  
6.15005 6.15005 1.34421  
1.34421 5.09135 5.09135  
2.40292 1.34421 2.40292  
2.40292 2.40292 1.34421  
6.15005 1.34421 6.15005  
 3.21778  3.21778 0.529352  
 6.96491 0.529352  6.96491  
 4.27649 0.529352  4.27649  
0.529352  6.96491  6.96491  
5.09135 1.34421 5.09135  
1.34421 6.15005 6.15005  
1.34421 2.40292 2.40292  
0.529352  3.21778  3.21778  
 4.27649  4.27649 0.529352  
5.09135 5.09135 1.34421  
