3D\Atomistic                            
1
7.49427       0      -0
      0 7.49427      -0
      0       0 7.49427
   C
  32
Direct
0.0706343 0.0706343 0.0706343  
0.929366 0.429366 0.570634  
0.429366 0.570634 0.929366  
0.570634 0.929366 0.429366  
0.820634 0.320634 0.679366  
0.179366 0.179366 0.179366  
0.320634 0.679366 0.820634  
0.679366 0.820634 0.320634  
0.320634 0.820634 0.679366  
0.820634 0.679366 0.320634  
0.679366 0.320634 0.820634  
0.429366 0.929366 0.570634  
0.929366 0.570634 0.429366  
0.570634 0.429366 0.929366  
0.0706343  0.570634  0.570634  
 0.929366  0.929366 0.0706343  
 0.429366 0.0706343  0.429366  
0.820634 0.820634 0.179366  
0.179366 0.679366 0.679366  
0.320634 0.179366 0.320634  
0.320634 0.320634 0.179366  
0.820634 0.179366 0.820634  
 0.429366  0.429366 0.0706343  
 0.929366 0.0706343  0.929366  
 0.570634 0.0706343  0.570634  
0.0706343  0.929366  0.929366  
0.679366 0.179366 0.679366  
0.179366 0.820634 0.820634  
0.179366 0.320634 0.320634  
0.0706343  0.429366  0.429366  
 0.570634  0.570634 0.0706343  
0.679366 0.679366 0.179366  
