3D\Atomistic                            
   1.00000000000000     
     7.4942655539912000    0.0000000000000000   -0.0000000000000000
     0.0000000000000000    7.4942655539912000   -0.0000000000000000
     0.0000000000000000    0.0000000000000000    7.4942655539912000
   C 
    32
Direct
  0.0706343010001080  0.0706343010001080  0.0706343010001080
  0.9293656689998967  0.4293656989998921  0.5706343310001033
  0.4293656989998921  0.5706343310001033  0.9293656689998967
  0.5706343310001033  0.9293656689998967  0.4293656989998921
  0.8206343310001033  0.3206343010001079  0.6793656689998967
  0.1793656989998920  0.1793656989998920  0.1793656989998920
  0.3206343010001079  0.6793656689998967  0.8206343310001033
  0.6793656689998967  0.8206343310001033  0.3206343010001080
  0.3206343010001079  0.8206343310001033  0.6793656689998967
  0.8206343310001033  0.6793656689998967  0.3206343010001079
  0.6793656689998967  0.3206343010001079  0.8206343310001033
  0.4293656989998921  0.9293656689998967  0.5706343310001033
  0.9293656689998967  0.5706343310001033  0.4293656989998921
  0.5706343310001033  0.4293656989998921  0.9293656689998967
  0.0706343010001080  0.5706343310001033  0.5706343310001033
  0.9293656689998967  0.9293656689998967  0.0706343010001080
  0.4293656989998921  0.0706343010001080  0.4293656989998921
  0.8206343310001033  0.8206343310001033  0.1793656989998920
  0.1793656989998920  0.6793656689998967  0.6793656689998967
  0.3206343010001079  0.1793656989998920  0.3206343010001079
  0.3206343010001080  0.3206343010001079  0.1793656989998920
  0.8206343310001033  0.1793656989998920  0.8206343310001033
  0.4293656989998921  0.4293656989998921  0.0706343010001080
  0.9293656689998967  0.0706343010001080  0.9293656689998967
  0.5706343310001033  0.0706343010001080  0.5706343310001033
  0.0706343010001080  0.9293656689998967  0.9293656689998967
  0.6793656689998967  0.1793656989998920  0.6793656689998967
  0.1793656989998920  0.8206343310001033  0.8206343310001033
  0.1793656989998920  0.3206343010001079  0.3206343010001080
  0.0706343010001080  0.4293656989998921  0.4293656989998921
  0.5706343310001033  0.5706343310001033  0.0706343010001080
  0.6793656689998967  0.6793656689998967  0.1793656989998920
 
  0.00000000E+00  0.00000000E+00  0.00000000E+00
  0.00000000E+00  0.00000000E+00  0.00000000E+00
  0.00000000E+00  0.00000000E+00  0.00000000E+00
  0.00000000E+00  0.00000000E+00  0.00000000E+00
  0.00000000E+00  0.00000000E+00  0.00000000E+00
  0.00000000E+00  0.00000000E+00  0.00000000E+00
  0.00000000E+00  0.00000000E+00  0.00000000E+00
  0.00000000E+00  0.00000000E+00  0.00000000E+00
  0.00000000E+00  0.00000000E+00  0.00000000E+00
  0.00000000E+00  0.00000000E+00  0.00000000E+00
  0.00000000E+00  0.00000000E+00  0.00000000E+00
  0.00000000E+00  0.00000000E+00  0.00000000E+00
  0.00000000E+00  0.00000000E+00  0.00000000E+00
  0.00000000E+00  0.00000000E+00  0.00000000E+00
  0.00000000E+00  0.00000000E+00  0.00000000E+00
  0.00000000E+00  0.00000000E+00  0.00000000E+00
  0.00000000E+00  0.00000000E+00  0.00000000E+00
  0.00000000E+00  0.00000000E+00  0.00000000E+00
  0.00000000E+00  0.00000000E+00  0.00000000E+00
  0.00000000E+00  0.00000000E+00  0.00000000E+00
  0.00000000E+00  0.00000000E+00  0.00000000E+00
  0.00000000E+00  0.00000000E+00  0.00000000E+00
  0.00000000E+00  0.00000000E+00  0.00000000E+00
  0.00000000E+00  0.00000000E+00  0.00000000E+00
  0.00000000E+00  0.00000000E+00  0.00000000E+00
  0.00000000E+00  0.00000000E+00  0.00000000E+00
  0.00000000E+00  0.00000000E+00  0.00000000E+00
  0.00000000E+00  0.00000000E+00  0.00000000E+00
  0.00000000E+00  0.00000000E+00  0.00000000E+00
  0.00000000E+00  0.00000000E+00  0.00000000E+00
  0.00000000E+00  0.00000000E+00  0.00000000E+00
  0.00000000E+00  0.00000000E+00  0.00000000E+00
