3D\Atomistic
  1
     7.4942656     0.0000000    -0.0000000
     0.0000000     7.4942656    -0.0000000
     0.0000000     0.0000000     7.4942656
     C
    32
Cartesian
     0.5293522     0.5293522     0.5293522  
     6.9649131     3.2177806     4.2764852  
     3.2177806     4.2764852     6.9649131  
     4.2764852     6.9649131     3.2177806  
     6.1500516     2.4029186     5.0913467  
     1.3442142     1.3442142     1.3442142  
     2.4029186     5.0913467     6.1500516  
     5.0913467     6.1500516     2.4029186  
     2.4029186     6.1500516     5.0913467  
     6.1500516     5.0913467     2.4029186  
     5.0913467     2.4029186     6.1500516  
     3.2177806     6.9649131     4.2764852  
     6.9649131     4.2764852     3.2177806  
     4.2764852     3.2177806     6.9649131  
     0.5293522     4.2764852     4.2764852  
     6.9649131     6.9649131     0.5293522  
     3.2177806     0.5293522     3.2177806  
     6.1500516     6.1500516     1.3442142  
     1.3442142     5.0913467     5.0913467  
     2.4029186     1.3442142     2.4029186  
     2.4029186     2.4029186     1.3442142  
     6.1500516     1.3442142     6.1500516  
     3.2177806     3.2177806     0.5293522  
     6.9649131     0.5293522     6.9649131  
     4.2764852     0.5293522     4.2764852  
     0.5293522     6.9649131     6.9649131  
     5.0913467     1.3442142     5.0913467  
     1.3442142     6.1500516     6.1500516  
     1.3442142     2.4029186     2.4029186  
     0.5293522     3.2177806     3.2177806  
     4.2764852     4.2764852     0.5293522  
     5.0913467     5.0913467     1.3442142  
