CBN-3x3-Na-hollow-N
1.0
       15.0209999084         0.0000000000         0.0000000000
        7.5104999542        13.0085675110         0.0000000000
        0.0000000000         0.0000000000        20.0000000000
    B    N    C   Na
   18   18  108    1
Direct
     0.000000000         0.000000000         0.466650009    ! B
     0.222220004         0.222220004         0.466650009
     0.333330005         0.000000000         0.466650009
     0.555559993         0.222220004         0.466650009
     0.666670024         0.000000000         0.466650009
     0.888890028         0.222220004         0.466650009
     0.000000000         0.333330005         0.466650009
     0.222220004         0.555559993         0.466650009
     0.333330005         0.333330005         0.466650009
     0.555559993         0.555559993         0.466650009
     0.666670024         0.333330005         0.466650009
     0.888890028         0.555559993         0.466650009
     0.000000000         0.666670024         0.466650009
     0.222220004         0.888890028         0.466650009
     0.333330005         0.666670024         0.466650009
     0.555559993         0.888890028         0.466650009
     0.666670024         0.666670024         0.466650009
     0.888890028         0.888890028         0.466650009
     0.000000000         0.000000000         0.300000012    ! N
     0.111110002         0.111110002         0.300000012
     0.333330005         0.000000000         0.300000012
     0.444440007         0.111110002         0.300000012
     0.666670024         0.000000000         0.300000012
     0.777779996         0.111110002         0.300000012
     0.000000000         0.333330005         0.300000012
     0.111110002         0.444440007         0.300000012
     0.333330005         0.333330005         0.300000012
     0.444440007         0.444440007         0.300000012
     0.666670024         0.333330005         0.300000012
     0.777779996         0.444440007         0.300000012
     0.000000000         0.666670024         0.300000012
     0.111110002         0.777779996         0.300000012
     0.333330005         0.666670024         0.300000012
     0.444440007         0.777779996         0.300000012
     0.666670024         0.666670024         0.300000012
     0.777779996         0.777779996         0.300000012
     0.166669995         0.000000000         0.466650009    ! C
     0.055560000         0.055560000         0.466650009
     0.000000000         0.166669995         0.466650009
     0.222220004         0.055560000         0.466650009
     0.055560000         0.222220004         0.466650009
     0.166669995         0.166669995         0.466650009
     0.166669995         0.166669995         0.300000012
     0.277779996         0.111110002         0.300000012
     0.111110002         0.277779996         0.300000012
     0.000000000         0.166669995         0.300000012
     0.166669995         0.000000000         0.300000012
     0.277779996         0.277779996         0.300000012
     0.500000000         0.000000000         0.466650009
     0.388889998         0.055560000         0.466650009
     0.333330005         0.166669995         0.466650009
     0.555559993         0.055560000         0.466650009
     0.388889998         0.222220004         0.466650009
     0.500000000         0.166669995         0.466650009
     0.500000000         0.166669995         0.300000012
     0.611109972         0.111110002         0.300000012
     0.444440007         0.277779996         0.300000012
     0.333330005         0.166669995         0.300000012
     0.500000000         0.000000000         0.300000012
     0.611109972         0.277779996         0.300000012
     0.833329976         0.000000000         0.466650009
     0.722220004         0.055560000         0.466650009
     0.666670024         0.166669995         0.466650009
     0.888890028         0.055560000         0.466650009
     0.722220004         0.222220004         0.466650009
     0.833329976         0.166669995         0.466650009
     0.833329976         0.166669995         0.300000012
     0.944440007         0.111110002         0.300000012
     0.777779996         0.277779996         0.300000012
     0.666670024         0.166669995         0.300000012
     0.833329976         0.000000000         0.300000012
     0.944440007         0.277779996         0.300000012
     0.166669995         0.333330005         0.466650009
     0.055560000         0.388889998         0.466650009
     0.000000000         0.500000000         0.466650009
     0.222220004         0.388889998         0.466650009
     0.055560000         0.555559993         0.466650009
     0.166669995         0.500000000         0.466650009
     0.166669995         0.500000000         0.300000012
     0.277779996         0.444440007         0.300000012
     0.111110002         0.611109972         0.300000012
     0.000000000         0.500000000         0.300000012
     0.166669995         0.333330005         0.300000012
     0.277779996         0.611109972         0.300000012
     0.500000000         0.333330005         0.466650009
     0.388889998         0.388889998         0.466650009
     0.333330005         0.500000000         0.466650009
     0.555559993         0.388889998         0.466650009
     0.388889998         0.555559993         0.466650009
     0.500000000         0.500000000         0.466650009
     0.500000000         0.500000000         0.300000012
     0.611109972         0.444440007         0.300000012
     0.444440007         0.611109972         0.300000012
     0.333330005         0.500000000         0.300000012
     0.500000000         0.333330005         0.300000012
     0.611109972         0.611109972         0.300000012
     0.833329976         0.333330005         0.466650009
     0.722220004         0.388889998         0.466650009
     0.666670024         0.500000000         0.466650009
     0.888890028         0.388889998         0.466650009
     0.722220004         0.555559993         0.466650009
     0.833329976         0.500000000         0.466650009
     0.833329976         0.500000000         0.300000012
     0.944440007         0.444440007         0.300000012
     0.777779996         0.611109972         0.300000012
     0.666670024         0.500000000         0.300000012
     0.833329976         0.333330005         0.300000012
     0.944440007         0.611109972         0.300000012
     0.166669995         0.666670024         0.466650009
     0.055560000         0.722220004         0.466650009
     0.000000000         0.833329976         0.466650009
     0.222220004         0.722220004         0.466650009
     0.055560000         0.888890028         0.466650009
     0.166669995         0.833329976         0.466650009
     0.166669995         0.833329976         0.300000012
     0.277779996         0.777779996         0.300000012
     0.111110002         0.944440007         0.300000012
     0.000000000         0.833329976         0.300000012
     0.166669995         0.666670024         0.300000012
     0.277779996         0.944440007         0.300000012
     0.500000000         0.666670024         0.466650009
     0.388889998         0.722220004         0.466650009
     0.333330005         0.833329976         0.466650009
     0.555559993         0.722220004         0.466650009
     0.388889998         0.888890028         0.466650009
     0.500000000         0.833329976         0.466650009
     0.500000000         0.833329976         0.300000012
     0.611109972         0.777779996         0.300000012
     0.444440007         0.944440007         0.300000012
     0.333330005         0.833329976         0.300000012
     0.500000000         0.666670024         0.300000012
     0.611109972         0.944440007         0.300000012
     0.833329976         0.666670024         0.466650009
     0.722220004         0.722220004         0.466650009
     0.666670024         0.833329976         0.466650009
     0.888890028         0.722220004         0.466650009
     0.722220004         0.888890028         0.466650009
     0.833329976         0.833329976         0.466650009
     0.833329976         0.833329976         0.300000012
     0.944440007         0.777779996         0.300000012
     0.777779996         0.944440007         0.300000012
     0.666670024         0.833329976         0.300000012
     0.833329976         0.666670024         0.300000012
     0.944440007         0.944440007         0.300000012
     0.38889             0.38889             0.175          ! Na
