CBN-3x3-Na-hollow-N
  1
    15.0209999     0.0000000     0.0000000
     7.5105000    13.0085675     0.0000000
     0.0000000     0.0000000    20.0000000
     B     N     C    Na
    18    18   108     1
Cartesian
     0.0000000     0.0000000     9.3330002  ! B ! B
     5.0069500     2.8907639     9.3330002  ! B 
     5.0069500     0.0000000     9.3330002  ! B 
    10.0140499     2.8907639     9.3330002  ! B 
    10.0140504     0.0000000     9.3330002  ! B 
    15.0210004     2.8907639     9.3330002  ! B 
     2.5034750     4.3361459     9.3330002  ! B 
     7.5105000     7.2270397     9.3330002  ! B 
     7.5104250     4.3361459     9.3330002  ! B 
    12.5175999     7.2270397     9.3330002  ! B 
    12.5175254     4.3361459     9.3330002  ! B 
    17.5245503     7.2270397     9.3330002  ! B 
     5.0070252     8.6724220     9.3330002  ! B 
    10.0139752    11.5631859     9.3330002  ! B 
    10.0139752     8.6724220     9.3330002  ! B 
    15.0210751    11.5631859     9.3330002  ! B 
    15.0210756     8.6724220     9.3330002  ! B 
    20.0280255    11.5631859     9.3330002  ! B 
     0.0000000     0.0000000     6.0000002  ! N ! N
     2.5034750     1.4453820     6.0000002  ! N 
     5.0069500     0.0000000     6.0000002  ! N 
     7.5104250     1.4453820     6.0000002  ! N 
    10.0140504     0.0000000     6.0000002  ! N 
    12.5175249     1.4453820     6.0000002  ! N 
     2.5034750     4.3361459     6.0000002  ! N 
     5.0069500     5.7815278     6.0000002  ! N 
     7.5104250     4.3361459     6.0000002  ! N 
    10.0139000     5.7815278     6.0000002  ! N 
    12.5175254     4.3361459     6.0000002  ! N 
    15.0209999     5.7815278     6.0000002  ! N 
     5.0070252     8.6724220     6.0000002  ! N 
     7.5105000    10.1178036     6.0000002  ! N 
    10.0139752     8.6724220     6.0000002  ! N 
    12.5174499    10.1178036     6.0000002  ! N 
    15.0210756     8.6724220     6.0000002  ! N 
    17.5245499    10.1178036     6.0000002  ! N 
     2.5035500     0.0000000     9.3330002  ! C ! C
     1.2518501     0.7227560     9.3330002  ! C 
     1.2517750     2.1681379     9.3330002  ! C 
     3.7552500     0.7227560     9.3330002  ! C 
     2.5035501     2.8907639     9.3330002  ! C 
     3.7553250     2.1681379     9.3330002  ! C 
     3.7553250     2.1681379     6.0000002  ! C 
     5.0070250     1.4453820     6.0000002  ! C 
     3.7552500     3.6135198     6.0000002  ! C 
     1.2517750     2.1681379     6.0000002  ! C 
     2.5035500     0.0000000     6.0000002  ! C 
     6.2587999     3.6135198     6.0000002  ! C 
     7.5105000     0.0000000     9.3330002  ! C 
     6.2588000     0.7227560     9.3330002  ! C 
     6.2587250     2.1681379     9.3330002  ! C 
     8.7623500     0.7227560     9.3330002  ! C 
     7.5105000     2.8907639     9.3330002  ! C 
     8.7622749     2.1681379     9.3330002  ! C 
     8.7622749     2.1681379     6.0000002  ! C 
    10.0139745     1.4453820     6.0000002  ! C 
     8.7622000     3.6135198     6.0000002  ! C 
     6.2587250     2.1681379     6.0000002  ! C 
     7.5105000     0.0000000     6.0000002  ! C 
    11.2657495     3.6135198     6.0000002  ! C 
    12.5174495     0.0000000     9.3330002  ! C 
    11.2657500     0.7227560     9.3330002  ! C 
    11.2658254     2.1681379     9.3330002  ! C 
    13.7693004     0.7227560     9.3330002  ! C 
    12.5174499     2.8907639     9.3330002  ! C 
    13.7692245     2.1681379     9.3330002  ! C 
    13.7692245     2.1681379     6.0000002  ! C 
    15.0209249     1.4453820     6.0000002  ! C 
    13.7692999     3.6135198     6.0000002  ! C 
    11.2658254     2.1681379     6.0000002  ! C 
    12.5174495     0.0000000     6.0000002  ! C 
    16.2726999     3.6135198     6.0000002  ! C 
     5.0070250     4.3361459     9.3330002  ! C 
     3.7553251     5.0589018     9.3330002  ! C 
     3.7552500     6.5042838     9.3330002  ! C 
     6.2587250     5.0589018     9.3330002  ! C 
     5.0071001     7.2270397     9.3330002  ! C 
     6.2588000     6.5042838     9.3330002  ! C 
     6.2588000     6.5042838     6.0000002  ! C 
     7.5104999     5.7815278     6.0000002  ! C 
     6.2587247     7.9496653     6.0000002  ! C 
     3.7552500     6.5042838     6.0000002  ! C 
     5.0070250     4.3361459     6.0000002  ! C 
     8.7622747     7.9496653     6.0000002  ! C 
    10.0139749     4.3361459     9.3330002  ! C 
     8.7622749     5.0589018     9.3330002  ! C 
     8.7622000     6.5042838     9.3330002  ! C 
    11.2658249     5.0589018     9.3330002  ! C 
    10.0140499     7.2270397     9.3330002  ! C 
    11.2657499     6.5042838     9.3330002  ! C 
    11.2657499     6.5042838     6.0000002  ! C 
    12.5174495     5.7815278     6.0000002  ! C 
    11.2656747     7.9496653     6.0000002  ! C 
     8.7622000     6.5042838     6.0000002  ! C 
    10.0139749     4.3361459     6.0000002  ! C 
    13.7692243     7.9496653     6.0000002  ! C 
    15.0209245     4.3361459     9.3330002  ! C 
    13.7692249     5.0589018     9.3330002  ! C 
    13.7693003     6.5042838     9.3330002  ! C 
    16.2727753     5.0589018     9.3330002  ! C 
    15.0209999     7.2270397     9.3330002  ! C 
    16.2726995     6.5042838     9.3330002  ! C 
    16.2726995     6.5042838     6.0000002  ! C 
    17.5243999     5.7815278     6.0000002  ! C 
    16.2727747     7.9496653     6.0000002  ! C 
    13.7693003     6.5042838     6.0000002  ! C 
    15.0209245     4.3361459     6.0000002  ! C 
    18.7761747     7.9496653     6.0000002  ! C 
     7.5105752     8.6724220     9.3330002  ! C 
     6.2588001     9.3950477     9.3330002  ! C 
     6.2587247    10.8404293     9.3330002  ! C 
     8.7622000     9.3950477     9.3330002  ! C 
     7.5105753    11.5631859     9.3330002  ! C 
     8.7622747    10.8404293     9.3330002  ! C 
     8.7622747    10.8404293     6.0000002  ! C 
    10.0140499    10.1178036     6.0000002  ! C 
     8.7622000    12.2858116     6.0000002  ! C 
     6.2587247    10.8404293     6.0000002  ! C 
     7.5105752     8.6724220     6.0000002  ! C 
    11.2657499    12.2858116     6.0000002  ! C 
    12.5175251     8.6724220     9.3330002  ! C 
    11.2657499     9.3950477     9.3330002  ! C 
    11.2656747    10.8404293     9.3330002  ! C 
    13.7692999     9.3950477     9.3330002  ! C 
    12.5175251    11.5631859     9.3330002  ! C 
    13.7692247    10.8404293     9.3330002  ! C 
    13.7692247    10.8404293     6.0000002  ! C 
    15.0209995    10.1178036     6.0000002  ! C 
    13.7691499    12.2858116     6.0000002  ! C 
    11.2656747    10.8404293     6.0000002  ! C 
    12.5175251     8.6724220     6.0000002  ! C 
    16.2726995    12.2858116     6.0000002  ! C 
    17.5244747     8.6724220     9.3330002  ! C 
    16.2726999     9.3950477     9.3330002  ! C 
    16.2727751    10.8404293     9.3330002  ! C 
    18.7762503     9.3950477     9.3330002  ! C 
    17.5244751    11.5631859     9.3330002  ! C 
    18.7761742    10.8404293     9.3330002  ! C 
    18.7761742    10.8404293     6.0000002  ! C 
    20.0279499    10.1178036     6.0000002  ! C 
    18.7762499    12.2858116     6.0000002  ! C 
    16.2727751    10.8404293     6.0000002  ! C 
    17.5244747     8.6724220     6.0000002  ! C 
    21.2796499    12.2858116     6.0000002  ! C 
     8.7622750     5.0589018     3.5000000  ! Na ! Na
