CBN-3x3-Na-hollow-N
  1
    15.0209999     0.0000000     0.0000000
     7.5105000    13.0085675     0.0000000
     0.0000000     0.0000000    20.0000000
     B     N     C    Na
    18    18   108     1
Direct
     0.0000000     0.0000000     0.4666500  ! B ! B
     0.2222200     0.2222200     0.4666500  ! B 
     0.3333300     0.0000000     0.4666500  ! B 
     0.5555600     0.2222200     0.4666500  ! B 
     0.6666700     0.0000000     0.4666500  ! B 
     0.8888900     0.2222200     0.4666500  ! B 
     0.0000000     0.3333300     0.4666500  ! B 
     0.2222200     0.5555600     0.4666500  ! B 
     0.3333300     0.3333300     0.4666500  ! B 
     0.5555600     0.5555600     0.4666500  ! B 
     0.6666700     0.3333300     0.4666500  ! B 
     0.8888900     0.5555600     0.4666500  ! B 
     0.0000000     0.6666700     0.4666500  ! B 
     0.2222200     0.8888900     0.4666500  ! B 
     0.3333300     0.6666700     0.4666500  ! B 
     0.5555600     0.8888900     0.4666500  ! B 
     0.6666700     0.6666700     0.4666500  ! B 
     0.8888900     0.8888900     0.4666500  ! B 
     0.0000000     0.0000000     0.3000000  ! N ! N
     0.1111100     0.1111100     0.3000000  ! N 
     0.3333300     0.0000000     0.3000000  ! N 
     0.4444400     0.1111100     0.3000000  ! N 
     0.6666700     0.0000000     0.3000000  ! N 
     0.7777800     0.1111100     0.3000000  ! N 
     0.0000000     0.3333300     0.3000000  ! N 
     0.1111100     0.4444400     0.3000000  ! N 
     0.3333300     0.3333300     0.3000000  ! N 
     0.4444400     0.4444400     0.3000000  ! N 
     0.6666700     0.3333300     0.3000000  ! N 
     0.7777800     0.4444400     0.3000000  ! N 
     0.0000000     0.6666700     0.3000000  ! N 
     0.1111100     0.7777800     0.3000000  ! N 
     0.3333300     0.6666700     0.3000000  ! N 
     0.4444400     0.7777800     0.3000000  ! N 
     0.6666700     0.6666700     0.3000000  ! N 
     0.7777800     0.7777800     0.3000000  ! N 
     0.1666700     0.0000000     0.4666500  ! C ! C
     0.0555600     0.0555600     0.4666500  ! C 
     0.0000000     0.1666700     0.4666500  ! C 
     0.2222200     0.0555600     0.4666500  ! C 
     0.0555600     0.2222200     0.4666500  ! C 
     0.1666700     0.1666700     0.4666500  ! C 
     0.1666700     0.1666700     0.3000000  ! C 
     0.2777800     0.1111100     0.3000000  ! C 
     0.1111100     0.2777800     0.3000000  ! C 
     0.0000000     0.1666700     0.3000000  ! C 
     0.1666700     0.0000000     0.3000000  ! C 
     0.2777800     0.2777800     0.3000000  ! C 
     0.5000000     0.0000000     0.4666500  ! C 
     0.3888900     0.0555600     0.4666500  ! C 
     0.3333300     0.1666700     0.4666500  ! C 
     0.5555600     0.0555600     0.4666500  ! C 
     0.3888900     0.2222200     0.4666500  ! C 
     0.5000000     0.1666700     0.4666500  ! C 
     0.5000000     0.1666700     0.3000000  ! C 
     0.6111100     0.1111100     0.3000000  ! C 
     0.4444400     0.2777800     0.3000000  ! C 
     0.3333300     0.1666700     0.3000000  ! C 
     0.5000000     0.0000000     0.3000000  ! C 
     0.6111100     0.2777800     0.3000000  ! C 
     0.8333300     0.0000000     0.4666500  ! C 
     0.7222200     0.0555600     0.4666500  ! C 
     0.6666700     0.1666700     0.4666500  ! C 
     0.8888900     0.0555600     0.4666500  ! C 
     0.7222200     0.2222200     0.4666500  ! C 
     0.8333300     0.1666700     0.4666500  ! C 
     0.8333300     0.1666700     0.3000000  ! C 
     0.9444400     0.1111100     0.3000000  ! C 
     0.7777800     0.2777800     0.3000000  ! C 
     0.6666700     0.1666700     0.3000000  ! C 
     0.8333300     0.0000000     0.3000000  ! C 
     0.9444400     0.2777800     0.3000000  ! C 
     0.1666700     0.3333300     0.4666500  ! C 
     0.0555600     0.3888900     0.4666500  ! C 
     0.0000000     0.5000000     0.4666500  ! C 
     0.2222200     0.3888900     0.4666500  ! C 
     0.0555600     0.5555600     0.4666500  ! C 
     0.1666700     0.5000000     0.4666500  ! C 
     0.1666700     0.5000000     0.3000000  ! C 
     0.2777800     0.4444400     0.3000000  ! C 
     0.1111100     0.6111100     0.3000000  ! C 
     0.0000000     0.5000000     0.3000000  ! C 
     0.1666700     0.3333300     0.3000000  ! C 
     0.2777800     0.6111100     0.3000000  ! C 
     0.5000000     0.3333300     0.4666500  ! C 
     0.3888900     0.3888900     0.4666500  ! C 
     0.3333300     0.5000000     0.4666500  ! C 
     0.5555600     0.3888900     0.4666500  ! C 
     0.3888900     0.5555600     0.4666500  ! C 
     0.5000000     0.5000000     0.4666500  ! C 
     0.5000000     0.5000000     0.3000000  ! C 
     0.6111100     0.4444400     0.3000000  ! C 
     0.4444400     0.6111100     0.3000000  ! C 
     0.3333300     0.5000000     0.3000000  ! C 
     0.5000000     0.3333300     0.3000000  ! C 
     0.6111100     0.6111100     0.3000000  ! C 
     0.8333300     0.3333300     0.4666500  ! C 
     0.7222200     0.3888900     0.4666500  ! C 
     0.6666700     0.5000000     0.4666500  ! C 
     0.8888900     0.3888900     0.4666500  ! C 
     0.7222200     0.5555600     0.4666500  ! C 
     0.8333300     0.5000000     0.4666500  ! C 
     0.8333300     0.5000000     0.3000000  ! C 
     0.9444400     0.4444400     0.3000000  ! C 
     0.7777800     0.6111100     0.3000000  ! C 
     0.6666700     0.5000000     0.3000000  ! C 
     0.8333300     0.3333300     0.3000000  ! C 
     0.9444400     0.6111100     0.3000000  ! C 
     0.1666700     0.6666700     0.4666500  ! C 
     0.0555600     0.7222200     0.4666500  ! C 
     0.0000000     0.8333300     0.4666500  ! C 
     0.2222200     0.7222200     0.4666500  ! C 
     0.0555600     0.8888900     0.4666500  ! C 
     0.1666700     0.8333300     0.4666500  ! C 
     0.1666700     0.8333300     0.3000000  ! C 
     0.2777800     0.7777800     0.3000000  ! C 
     0.1111100     0.9444400     0.3000000  ! C 
     0.0000000     0.8333300     0.3000000  ! C 
     0.1666700     0.6666700     0.3000000  ! C 
     0.2777800     0.9444400     0.3000000  ! C 
     0.5000000     0.6666700     0.4666500  ! C 
     0.3888900     0.7222200     0.4666500  ! C 
     0.3333300     0.8333300     0.4666500  ! C 
     0.5555600     0.7222200     0.4666500  ! C 
     0.3888900     0.8888900     0.4666500  ! C 
     0.5000000     0.8333300     0.4666500  ! C 
     0.5000000     0.8333300     0.3000000  ! C 
     0.6111100     0.7777800     0.3000000  ! C 
     0.4444400     0.9444400     0.3000000  ! C 
     0.3333300     0.8333300     0.3000000  ! C 
     0.5000000     0.6666700     0.3000000  ! C 
     0.6111100     0.9444400     0.3000000  ! C 
     0.8333300     0.6666700     0.4666500  ! C 
     0.7222200     0.7222200     0.4666500  ! C 
     0.6666700     0.8333300     0.4666500  ! C 
     0.8888900     0.7222200     0.4666500  ! C 
     0.7222200     0.8888900     0.4666500  ! C 
     0.8333300     0.8333300     0.4666500  ! C 
     0.8333300     0.8333300     0.3000000  ! C 
     0.9444400     0.7777800     0.3000000  ! C 
     0.7777800     0.9444400     0.3000000  ! C 
     0.6666700     0.8333300     0.3000000  ! C 
     0.8333300     0.6666700     0.3000000  ! C 
     0.9444400     0.9444400     0.3000000  ! C 
     0.3888900     0.3888900     0.1750000  ! Na ! Na
