Te                                      
1
16.7098       0       0
      0 12.6744       0
      0       0      30
  27
Cartesian
3.6612 2.1124 1.5059  
3.6612 6.3372 1.5059  
3.6612 10.562 1.5059  
9.23112  2.1124  1.5059  
9.23112  6.3372  1.5059  
9.23112  10.562  1.5059  
14.801 2.1124 1.5059  
14.801 6.3372 1.5059  
14.801 10.562 1.5059  
0.000169332           0     2.57929  
0.000169332      4.2248     2.57929  
0.000169332      8.4496     2.57929  
5.57009       0 2.57929  
5.57009  4.2248 2.57929  
5.57009  8.4496 2.57929  
  11.14       0 2.57929  
  11.14  4.2248 2.57929  
  11.14  8.4496 2.57929  
1.90856  2.1124 3.65481  
1.90856  6.3372 3.65481  
1.90856  10.562 3.65481  
7.47848  2.1124 3.65481  
7.47848  6.3372 3.65481  
7.47848  10.562 3.65481  
13.0484  2.1124 3.65481  
13.0484  6.3372 3.65481  
13.0484  10.562 3.65481  
