Te                                      
1
16.7098       0       0
      0 12.6744       0
      0       0      30
  27
Direct
 0.219105  0.166667 0.0501968  
 0.219105       0.5 0.0501968  
 0.219105  0.833333 0.0501968  
 0.552439  0.166667 0.0501968  
 0.552439       0.5 0.0501968  
 0.552439  0.833333 0.0501968  
 0.885772  0.166667 0.0501968  
 0.885772       0.5 0.0501968  
 0.885772  0.833333 0.0501968  
1.01337e-05           0   0.0859762  
1.01337e-05    0.333333   0.0859762  
1.01337e-05    0.666667   0.0859762  
 0.333343         0 0.0859762  
 0.333343  0.333333 0.0859762  
 0.333343  0.666667 0.0859762  
 0.666677         0 0.0859762  
 0.666677  0.333333 0.0859762  
 0.666677  0.666667 0.0859762  
0.114218 0.166667 0.121827  
0.114218      0.5 0.121827  
0.114218 0.833333 0.121827  
0.447551 0.166667 0.121827  
0.447551      0.5 0.121827  
0.447551 0.833333 0.121827  
0.780885 0.166667 0.121827  
0.780885      0.5 0.121827  
0.780885 0.833333 0.121827  
