Te
  1
    16.7097694     0.0000000     0.0000000
     0.0000000    12.6743930     0.0000000
     0.0000000     0.0000000    30.0000000
    27
Direct
     0.2191052     0.1666667     0.0501968  !  ! comment test
     0.2191052     0.5000000     0.0501968  !  
     0.2191052     0.8333333     0.0501968  !  
     0.5524385     0.1666667     0.0501968  !  
     0.5524385     0.5000000     0.0501968  !  
     0.5524385     0.8333333     0.0501968  !  
     0.8857719     0.1666667     0.0501968  !  
     0.8857719     0.5000000     0.0501968  !  
     0.8857719     0.8333333     0.0501968  !  
     0.0000101     0.0000000     0.0859762  !  
     0.0000101     0.3333333     0.0859762  !  
     0.0000101     0.6666667     0.0859762  !  
     0.3333435     0.0000000     0.0859762  !  
     0.3333435     0.3333333     0.0859762  !  
     0.3333435     0.6666667     0.0859762  !  
     0.6666768     0.0000000     0.0859762  !  
     0.6666768     0.3333333     0.0859762  !  
     0.6666768     0.6666667     0.0859762  !  
     0.1142180     0.1666667     0.1218270  !  
     0.1142180     0.5000000     0.1218270  !  
     0.1142180     0.8333333     0.1218270  !  
     0.4475513     0.1666667     0.1218270  !  
     0.4475513     0.5000000     0.1218270  !  
     0.4475513     0.8333333     0.1218270  !  
     0.7808847     0.1666667     0.1218270  !  
     0.7808847     0.5000000     0.1218270  !  
     0.7808847     0.8333333     0.1218270  !  
