Te
  1
    16.7097694     0.0000000     0.0000000
     0.0000000    12.6743930     0.0000000
     0.0000000     0.0000000    30.0000000
    27
Cartesian
     3.6611971     2.1123988     1.5059033  ! comment test
     3.6611971     6.3371965     1.5059033  
     3.6611971    10.5619942     1.5059033  
     9.2311202     2.1123988     1.5059033  
     9.2311202     6.3371965     1.5059033  
     9.2311202    10.5619942     1.5059033  
    14.8010433     2.1123988     1.5059033  
    14.8010433     6.3371965     1.5059033  
    14.8010433    10.5619942     1.5059033  
     0.0001693     0.0000000     2.5792869  
     0.0001693     4.2247977     2.5792869  
     0.0001693     8.4495953     2.5792869  
     5.5700925     0.0000000     2.5792869  
     5.5700925     4.2247977     2.5792869  
     5.5700925     8.4495953     2.5792869  
    11.1400156     0.0000000     2.5792869  
    11.1400156     4.2247977     2.5792869  
    11.1400156     8.4495953     2.5792869  
     1.9085567     2.1123988     3.6548098  
     1.9085567     6.3371965     3.6548098  
     1.9085567    10.5619942     3.6548098  
     7.4784798     2.1123988     3.6548098  
     7.4784798     6.3371965     3.6548098  
     7.4784798    10.5619942     3.6548098  
    13.0484030     2.1123988     3.6548098  
    13.0484030     6.3371965     3.6548098  
    13.0484030    10.5619942     3.6548098  
