Te                                      
   1.00000000000000     
    16.709769374964747     0.0000000000000000    0.0000000000000000
     0.0000000000000000   12.674393023454058    0.0000000000000000
     0.0000000000000000    0.0000000000000000   30.0000000000000000
     27
Cart
   3.6611970859445004    2.1123988372423428    1.5059033426991442
   3.6611970859445004    6.3371965117270292    1.5059033426991442
   3.6611970859445004   10.5619941862117166    1.5059033426991442
   9.2311202109327493    2.1123988372423428    1.5059033426991442
   9.2311202109327493    6.3371965117270292    1.5059033426991442
   9.2311202109327493   10.5619941862117166    1.5059033426991442
  14.8010433359209976    2.1123988372423428    1.5059033426991442
  14.8010433359209976    6.3371965117270292    1.5059033426991442
  14.8010433359209976   10.5619941862117166    1.5059033426991442
   0.0001693318154969    0.0000000000000000    2.5792868806914351
   0.0001693318154969    4.2247976744846856    2.5792868806914351
   0.0001693318154969    8.4495953489693711    2.5792868806914351
   5.5700924568037458    0.0000000000000000    2.5792868806914351
   5.5700924568037458    4.2247976744846856    2.5792868806914351
   5.5700924568037458    8.4495953489693711    2.5792868806914351
  11.1400155817919959    0.0000000000000000    2.5792868806914351
  11.1400155817919959    4.2247976744846856    2.5792868806914351
  11.1400155817919959    8.4495953489693711    2.5792868806914351
   1.9085567072282539    2.1123988372423428    3.6548097766095013
   1.9085567072282539    6.3371965117270292    3.6548097766095013
   1.9085567072282539   10.5619941862117166    3.6548097766095013
   7.4784798322165029    2.1123988372423428    3.6548097766095013
   7.4784798322165029    6.3371965117270292    3.6548097766095013
   7.4784798322165029   10.5619941862117166    3.6548097766095013
  13.0484029572047540    2.1123988372423428    3.6548097766095013
  13.0484029572047540    6.3371965117270292    3.6548097766095013
  13.0484029572047540   10.5619941862117166    3.6548097766095013
