fcc Cu (100)
  3.63
     2.5000000    -2.5000000     0.0000000
     2.5000000     2.5000000     0.0000000
     0.0000000     0.0000000     8.0000000
    Cu     C     H
   100     2     2
Selective Dynamics
Direct
     0.0000000     0.0000000     0.0000000  F  F  F  
     0.2000000     0.0000000     0.0000000  F  F  F  
     0.4000000     0.0000000     0.0000000  F  F  F  
     0.6000000     0.0000000     0.0000000  F  F  F  
     0.8000000     0.0000000     0.0000000  F  F  F  
     0.0000000     0.2000000     0.0000000  F  F  F  
     0.2000000     0.2000000     0.0000000  F  F  F  
     0.4000000     0.2000000     0.0000000  F  F  F  
     0.6000000     0.2000000     0.0000000  F  F  F  
     0.8000000     0.2000000     0.0000000  F  F  F  
     0.0000000     0.4000000     0.0000000  F  F  F  
     0.2000000     0.4000000     0.0000000  F  F  F  
     0.4000000     0.4000000     0.0000000  F  F  F  
     0.6000000     0.4000000     0.0000000  F  F  F  
     0.8000000     0.4000000     0.0000000  F  F  F  
     0.0000000     0.6000000     0.0000000  F  F  F  
     0.2000000     0.6000000     0.0000000  F  F  F  
     0.4000000     0.6000000     0.0000000  F  F  F  
     0.6000000     0.6000000     0.0000000  F  F  F  
     0.8000000     0.6000000     0.0000000  F  F  F  
     0.0000000     0.8000000     0.0000000  F  F  F  
     0.2000000     0.8000000     0.0000000  F  F  F  
     0.4000000     0.8000000     0.0000000  F  F  F  
     0.6000000     0.8000000     0.0000000  F  F  F  
     0.8000000     0.8000000     0.0000000  F  F  F  
     0.1000000     0.1000000     0.0625000  F  F  F  
     0.3000000     0.1000000     0.0625000  F  F  F  
     0.5000000     0.1000000     0.0625000  F  F  F  
     0.7000000     0.1000000     0.0625000  F  F  F  
     0.9000000     0.1000000     0.0625000  F  F  F  
     0.1000000     0.3000000     0.0625000  F  F  F  
     0.3000000     0.3000000     0.0625000  F  F  F  
     0.5000000     0.3000000     0.0625000  F  F  F  
     0.7000000     0.3000000     0.0625000  F  F  F  
     0.9000000     0.3000000     0.0625000  F  F  F  
     0.1000000     0.5000000     0.0625000  F  F  F  
     0.3000000     0.5000000     0.0625000  F  F  F  
     0.5000000     0.5000000     0.0625000  F  F  F  
     0.7000000     0.5000000     0.0625000  F  F  F  
     0.9000000     0.5000000     0.0625000  F  F  F  
     0.1000000     0.7000000     0.0625000  F  F  F  
     0.3000000     0.7000000     0.0625000  F  F  F  
     0.5000000     0.7000000     0.0625000  F  F  F  
     0.7000000     0.7000000     0.0625000  F  F  F  
     0.9000000     0.7000000     0.0625000  F  F  F  
     0.1000000     0.9000000     0.0625000  F  F  F  
     0.3000000     0.9000000     0.0625000  F  F  F  
     0.5000000     0.9000000     0.0625000  F  F  F  
     0.7000000     0.9000000     0.0625000  F  F  F  
     0.9000000     0.9000000     0.0625000  F  F  F  
     0.9997881     0.0002119     0.1255582  T  T  T  
     0.1996385     0.0015403     0.1253389  T  T  T  
     0.4002667     0.9997362     0.1253056  T  T  T  
     0.6002030     0.9980611     0.1255512  T  T  T  
     0.7998405     0.9998405     0.1257593  T  T  T  
     0.0001595     0.2001595     0.1257593  T  T  T  
     0.1997970     0.2019389     0.1255512  T  T  T  
     0.3997333     0.2002638     0.1253056  T  T  T  
     0.6003615     0.1984597     0.1253389  T  T  T  
     0.8002119     0.1997881     0.1255582  T  T  T  
     0.0019389     0.3997970     0.1255512  T  T  T  
     0.2040431     0.4040431     0.1273306  T  T  T  
     0.4005851     0.4018237     0.1262515  T  T  T  
     0.6008689     0.3991311     0.1253089  T  T  T  
     0.8015403     0.3996385     0.1253389  T  T  T  
     0.0002638     0.5997333     0.1253056  T  T  T  
     0.2018237     0.6005851     0.1262515  T  T  T  
     0.4000000     0.6000000     0.1240389  T  T  T  
     0.5981763     0.5994149     0.1262515  T  T  T  
     0.7997362     0.6002667     0.1253056  T  T  T  
     0.9984597     0.8003615     0.1253389  T  T  T  
     0.1991311     0.8008689     0.1253089  T  T  T  
     0.3994149     0.7981763     0.1262515  T  T  T  
     0.5959569     0.7959569     0.1273306  T  T  T  
     0.7980611     0.8002030     0.1255512  T  T  T  
     0.1001199     0.1004269     0.1865313  T  T  T  
     0.3001832     0.1035120     0.1863470  T  T  T  
     0.4998168     0.0964880     0.1863470  T  T  T  
     0.6998801     0.0995731     0.1865313  T  T  T  
     0.9000000     0.1000000     0.1867497  T  T  T  
     0.1007031     0.3007031     0.1867970  T  T  T  
     0.3007584     0.3030709     0.1867988  T  T  T  
     0.5004294     0.2945105     0.1860239  T  T  T  
     0.6998356     0.3001644     0.1862190  T  T  T  
     0.9004269     0.3001199     0.1865313  T  T  T  
     0.1030709     0.5007584     0.1867988  T  T  T  
     0.3072315     0.5072315     0.1933519  T  T  T  
     0.5086623     0.4913377     0.1882314  T  T  T  
     0.7054895     0.4995706     0.1860239  T  T  T  
     0.9035120     0.5001832     0.1863470  T  T  T  
     0.0945105     0.7004294     0.1860239  T  T  T  
     0.2913377     0.7086623     0.1882314  T  T  T  
     0.4927685     0.6927685     0.1933519  T  T  T  
     0.6969291     0.6992416     0.1867988  T  T  T  
     0.8964880     0.6998168     0.1863470  T  T  T  
     0.1001644     0.8998356     0.1862190  T  T  T  
     0.2995706     0.9054895     0.1860239  T  T  T  
     0.4992416     0.8969291     0.1867988  T  T  T  
     0.6992969     0.8992969     0.1867970  T  T  T  
     0.8995731     0.8998801     0.1865313  T  T  T  
     0.4378153     0.5621847     0.2387314  T  T  T  
     0.3621847     0.6378153     0.2387314  T  T  T  
     0.4678122     0.5321878     0.2716930  T  T  T  
     0.3321878     0.6678122     0.2716930  T  T  T  
