fcc Cu (100)                            
   3.63000000000000     
     2.5000000000000000   -2.5000000000000000    0.0000000000000000
     2.5000000000000000    2.5000000000000000    0.0000000000000000
     0.0000000000000000    0.0000000000000000    8.0000000000000000
   Cu   C    H 
   100     2     2
Selective dynamics
Direct
  0.0000000000000000  0.0000000000000000  0.0000000000000000   F   F   F
  0.2000000000000028  0.0000000000000000  0.0000000000000000   F   F   F
  0.3999999999999986  0.0000000000000000  0.0000000000000000   F   F   F
  0.6000000000000014  0.0000000000000000  0.0000000000000000   F   F   F
  0.7999999999999972  0.0000000000000000  0.0000000000000000   F   F   F
  0.0000000000000000  0.2000000000000028  0.0000000000000000   F   F   F
  0.2000000000000028  0.2000000000000028  0.0000000000000000   F   F   F
  0.3999999999999986  0.2000000000000028  0.0000000000000000   F   F   F
  0.6000000000000014  0.2000000000000028  0.0000000000000000   F   F   F
  0.7999999999999972  0.2000000000000028  0.0000000000000000   F   F   F
  0.0000000000000000  0.3999999999999986  0.0000000000000000   F   F   F
  0.2000000000000028  0.3999999999999986  0.0000000000000000   F   F   F
  0.3999999999999986  0.3999999999999986  0.0000000000000000   F   F   F
  0.6000000000000014  0.3999999999999986  0.0000000000000000   F   F   F
  0.7999999999999972  0.3999999999999986  0.0000000000000000   F   F   F
  0.0000000000000000  0.6000000000000014  0.0000000000000000   F   F   F
  0.2000000000000028  0.6000000000000014  0.0000000000000000   F   F   F
  0.3999999999999986  0.6000000000000014  0.0000000000000000   F   F   F
  0.6000000000000014  0.6000000000000014  0.0000000000000000   F   F   F
  0.7999999999999972  0.6000000000000014  0.0000000000000000   F   F   F
  0.0000000000000000  0.7999999999999972  0.0000000000000000   F   F   F
  0.2000000000000028  0.7999999999999972  0.0000000000000000   F   F   F
  0.3999999999999986  0.7999999999999972  0.0000000000000000   F   F   F
  0.6000000000000014  0.7999999999999972  0.0000000000000000   F   F   F
  0.7999999999999972  0.7999999999999972  0.0000000000000000   F   F   F
  0.1000000000000014  0.1000000000000014  0.0625000000000000   F   F   F
  0.2999999999999972  0.1000000000000014  0.0625000000000000   F   F   F
  0.5000000000000000  0.1000000000000014  0.0625000000000000   F   F   F
  0.7000000000000028  0.1000000000000014  0.0625000000000000   F   F   F
  0.8999999999999986  0.1000000000000014  0.0625000000000000   F   F   F
  0.1000000000000014  0.2999999999999972  0.0625000000000000   F   F   F
  0.2999999999999972  0.2999999999999972  0.0625000000000000   F   F   F
  0.5000000000000000  0.2999999999999972  0.0625000000000000   F   F   F
  0.7000000000000028  0.2999999999999972  0.0625000000000000   F   F   F
  0.8999999999999986  0.2999999999999972  0.0625000000000000   F   F   F
  0.1000000000000014  0.5000000000000000  0.0625000000000000   F   F   F
  0.2999999999999972  0.5000000000000000  0.0625000000000000   F   F   F
  0.5000000000000000  0.5000000000000000  0.0625000000000000   F   F   F
  0.7000000000000028  0.5000000000000000  0.0625000000000000   F   F   F
  0.8999999999999986  0.5000000000000000  0.0625000000000000   F   F   F
  0.1000000000000014  0.7000000000000028  0.0625000000000000   F   F   F
  0.2999999999999972  0.7000000000000028  0.0625000000000000   F   F   F
  0.5000000000000000  0.7000000000000028  0.0625000000000000   F   F   F
  0.7000000000000028  0.7000000000000028  0.0625000000000000   F   F   F
  0.8999999999999986  0.7000000000000028  0.0625000000000000   F   F   F
  0.1000000000000014  0.8999999999999986  0.0625000000000000   F   F   F
  0.2999999999999972  0.8999999999999986  0.0625000000000000   F   F   F
  0.5000000000000000  0.8999999999999986  0.0625000000000000   F   F   F
  0.7000000000000028  0.8999999999999986  0.0625000000000000   F   F   F
  0.8999999999999986  0.8999999999999986  0.0625000000000000   F   F   F
  0.9997881065342283  0.0002118934657718  0.1255581752934666   T   T   T
  0.1996384729155155  0.0015402791163923  0.1253388668550424   T   T   T
  0.4002666604818202  0.9997361641972498  0.1253056296643610   T   T   T
  0.6002030438801509  0.9980611183655104  0.1255512486002864   T   T   T
  0.7998405439655977  0.9998405439656005  0.1257593410989072   T   T   T
  0.0001594560343995  0.2001594560344023  0.1257593410989072   T   T   T
  0.1997969561198536  0.2019388816344926  0.1255512486002864   T   T   T
  0.3997333395181769  0.2002638358027530  0.1253056296643610   T   T   T
  0.6003615270844888  0.1984597208836105  0.1253388668550424   T   T   T
  0.8002118934657688  0.1997881065342311  0.1255581752934666   T   T   T
  0.0019388816344897  0.3997969561198495  0.1255512486002864   T   T   T
  0.2040431366395545  0.4040431366395503  0.1273306205568975   T   T   T
  0.4005850865609827  0.4018237254749192  0.1262514608649304   T   T   T
  0.6008688844778647  0.3991311155221425  0.1253088637368644   T   T   T
  0.8015402791163894  0.3996384729155114  0.1253388668550424   T   T   T
  0.0002638358027501  0.5997333395181794  0.1253056296643610   T   T   T
  0.2018237254749236  0.6005850865609854  0.1262514608649304   T   T   T
  0.3999999999999986  0.6000000000000014  0.1240388735587773   T   T   T
  0.5981762745250806  0.5994149134390174  0.1262514608649304   T   T   T
  0.7997361641972469  0.6002666604818234  0.1253056296643610   T   T   T
  0.9984597208836078  0.8003615270844845  0.1253388668550424   T   T   T
  0.1991311155221468  0.8008688844778604  0.1253088637368644   T   T   T
  0.3994149134390145  0.7981762745250763  0.1262514608649304   T   T   T
  0.5959568633604425  0.7959568633604382  0.1273306205568975   T   T   T
  0.7980611183655075  0.8002030438801466  0.1255512486002864   T   T   T
  0.1001199204977695  0.1004269252486087  0.1865312591234944   T   T   T
  0.3001831961335458  0.1035119650236627  0.1863469799482161   T   T   T
  0.4998168038664513  0.0964880349763402  0.1863469799482161   T   T   T
  0.6998800795022346  0.0995730747513941  0.1865312591234944   T   T   T
  0.8999999999999986  0.1000000000000014  0.1867497292681305   T   T   T
  0.1007030591031140  0.3007030591031098  0.1867969518580266   T   T   T
  0.3007583753047531  0.3030708502007608  0.1867988368130784   T   T   T
  0.5004294044209598  0.2945104621089865  0.1860238741324263   T   T   T
  0.6998356102888418  0.3001643897111583  0.1862189714240938   T   T   T
  0.9004269252486057  0.3001199204977652  0.1865312591234944   T   T   T
  0.1030708502007651  0.5007583753047561  0.1867988368130784   T   T   T
  0.3072315099848189  0.5072315099848217  0.1933519246993406   T   T   T
  0.5086622908752699  0.4913377091247301  0.1882314422465117   T   T   T
  0.7054895378910134  0.4995705955790400  0.1860238741324263   T   T   T
  0.9035119650236598  0.5001831961335487  0.1863469799482161   T   T   T
  0.0945104621089908  0.7004294044209627  0.1860238741324263   T   T   T
  0.2913377091247273  0.7086622908752728  0.1882314422465117   T   T   T
  0.4927684900151783  0.6927684900151811  0.1933519246993406   T   T   T
  0.6969291497992390  0.6992416246952539  0.1867988368130784   T   T   T
  0.8964880349763373  0.6998168038664542  0.1863469799482161   T   T   T
  0.1001643897111626  0.8998356102888375  0.1862189714240938   T   T   T
  0.2995705955790372  0.9054895378910092  0.1860238741324263   T   T   T
  0.4992416246952440  0.8969291497992348  0.1867988368130784   T   T   T
  0.6992969408968902  0.8992969408968859  0.1867969518580266   T   T   T
  0.8995730747513915  0.8998800795022304  0.1865312591234944   T   T   T
  0.4378153070030164  0.5621846929969838  0.2387313626135267   T   T   T
  0.3621846929969808  0.6378153070030190  0.2387313626135267   T   T   T
  0.4678121899910953  0.5321878100089048  0.2716930242464685   T   T   T
  0.3321878100089019  0.6678121899910980  0.2716930242464685   T   T   T
 
  0.00000000E+00  0.00000000E+00  0.00000000E+00
  0.00000000E+00  0.00000000E+00  0.00000000E+00
  0.00000000E+00  0.00000000E+00  0.00000000E+00
  0.00000000E+00  0.00000000E+00  0.00000000E+00
  0.00000000E+00  0.00000000E+00  0.00000000E+00
  0.00000000E+00  0.00000000E+00  0.00000000E+00
  0.00000000E+00  0.00000000E+00  0.00000000E+00
  0.00000000E+00  0.00000000E+00  0.00000000E+00
  0.00000000E+00  0.00000000E+00  0.00000000E+00
  0.00000000E+00  0.00000000E+00  0.00000000E+00
  0.00000000E+00  0.00000000E+00  0.00000000E+00
  0.00000000E+00  0.00000000E+00  0.00000000E+00
  0.00000000E+00  0.00000000E+00  0.00000000E+00
  0.00000000E+00  0.00000000E+00  0.00000000E+00
  0.00000000E+00  0.00000000E+00  0.00000000E+00
  0.00000000E+00  0.00000000E+00  0.00000000E+00
  0.00000000E+00  0.00000000E+00  0.00000000E+00
  0.00000000E+00  0.00000000E+00  0.00000000E+00
  0.00000000E+00  0.00000000E+00  0.00000000E+00
  0.00000000E+00  0.00000000E+00  0.00000000E+00
  0.00000000E+00  0.00000000E+00  0.00000000E+00
  0.00000000E+00  0.00000000E+00  0.00000000E+00
  0.00000000E+00  0.00000000E+00  0.00000000E+00
  0.00000000E+00  0.00000000E+00  0.00000000E+00
  0.00000000E+00  0.00000000E+00  0.00000000E+00
  0.00000000E+00  0.00000000E+00  0.00000000E+00
  0.00000000E+00  0.00000000E+00  0.00000000E+00
  0.00000000E+00  0.00000000E+00  0.00000000E+00
  0.00000000E+00  0.00000000E+00  0.00000000E+00
  0.00000000E+00  0.00000000E+00  0.00000000E+00
  0.00000000E+00  0.00000000E+00  0.00000000E+00
  0.00000000E+00  0.00000000E+00  0.00000000E+00
  0.00000000E+00  0.00000000E+00  0.00000000E+00
  0.00000000E+00  0.00000000E+00  0.00000000E+00
  0.00000000E+00  0.00000000E+00  0.00000000E+00
  0.00000000E+00  0.00000000E+00  0.00000000E+00
  0.00000000E+00  0.00000000E+00  0.00000000E+00
  0.00000000E+00  0.00000000E+00  0.00000000E+00
  0.00000000E+00  0.00000000E+00  0.00000000E+00
  0.00000000E+00  0.00000000E+00  0.00000000E+00
  0.00000000E+00  0.00000000E+00  0.00000000E+00
  0.00000000E+00  0.00000000E+00  0.00000000E+00
  0.00000000E+00  0.00000000E+00  0.00000000E+00
  0.00000000E+00  0.00000000E+00  0.00000000E+00
  0.00000000E+00  0.00000000E+00  0.00000000E+00
  0.00000000E+00  0.00000000E+00  0.00000000E+00
  0.00000000E+00  0.00000000E+00  0.00000000E+00
  0.00000000E+00  0.00000000E+00  0.00000000E+00
  0.00000000E+00  0.00000000E+00  0.00000000E+00
  0.00000000E+00  0.00000000E+00  0.00000000E+00
  0.00000000E+00  0.00000000E+00  0.00000000E+00
  0.00000000E+00  0.00000000E+00  0.00000000E+00
  0.00000000E+00  0.00000000E+00  0.00000000E+00
  0.00000000E+00  0.00000000E+00  0.00000000E+00
  0.00000000E+00  0.00000000E+00  0.00000000E+00
  0.00000000E+00  0.00000000E+00  0.00000000E+00
  0.00000000E+00  0.00000000E+00  0.00000000E+00
  0.00000000E+00  0.00000000E+00  0.00000000E+00
  0.00000000E+00  0.00000000E+00  0.00000000E+00
  0.00000000E+00  0.00000000E+00  0.00000000E+00
  0.00000000E+00  0.00000000E+00  0.00000000E+00
  0.00000000E+00  0.00000000E+00  0.00000000E+00
  0.00000000E+00  0.00000000E+00  0.00000000E+00
  0.00000000E+00  0.00000000E+00  0.00000000E+00
  0.00000000E+00  0.00000000E+00  0.00000000E+00
  0.00000000E+00  0.00000000E+00  0.00000000E+00
  0.00000000E+00  0.00000000E+00  0.00000000E+00
  0.00000000E+00  0.00000000E+00  0.00000000E+00
  0.00000000E+00  0.00000000E+00  0.00000000E+00
  0.00000000E+00  0.00000000E+00  0.00000000E+00
  0.00000000E+00  0.00000000E+00  0.00000000E+00
  0.00000000E+00  0.00000000E+00  0.00000000E+00
  0.00000000E+00  0.00000000E+00  0.00000000E+00
  0.00000000E+00  0.00000000E+00  0.00000000E+00
  0.00000000E+00  0.00000000E+00  0.00000000E+00
  0.00000000E+00  0.00000000E+00  0.00000000E+00
  0.00000000E+00  0.00000000E+00  0.00000000E+00
  0.00000000E+00  0.00000000E+00  0.00000000E+00
  0.00000000E+00  0.00000000E+00  0.00000000E+00
  0.00000000E+00  0.00000000E+00  0.00000000E+00
  0.00000000E+00  0.00000000E+00  0.00000000E+00
  0.00000000E+00  0.00000000E+00  0.00000000E+00
  0.00000000E+00  0.00000000E+00  0.00000000E+00
  0.00000000E+00  0.00000000E+00  0.00000000E+00
  0.00000000E+00  0.00000000E+00  0.00000000E+00
  0.00000000E+00  0.00000000E+00  0.00000000E+00
  0.00000000E+00  0.00000000E+00  0.00000000E+00
  0.00000000E+00  0.00000000E+00  0.00000000E+00
  0.00000000E+00  0.00000000E+00  0.00000000E+00
  0.00000000E+00  0.00000000E+00  0.00000000E+00
  0.00000000E+00  0.00000000E+00  0.00000000E+00
  0.00000000E+00  0.00000000E+00  0.00000000E+00
  0.00000000E+00  0.00000000E+00  0.00000000E+00
  0.00000000E+00  0.00000000E+00  0.00000000E+00
  0.00000000E+00  0.00000000E+00  0.00000000E+00
  0.00000000E+00  0.00000000E+00  0.00000000E+00
  0.00000000E+00  0.00000000E+00  0.00000000E+00
  0.00000000E+00  0.00000000E+00  0.00000000E+00
  0.00000000E+00  0.00000000E+00  0.00000000E+00
  0.00000000E+00  0.00000000E+00  0.00000000E+00
  0.00000000E+00  0.00000000E+00  0.00000000E+00
  0.00000000E+00  0.00000000E+00  0.00000000E+00
  0.00000000E+00  0.00000000E+00  0.00000000E+00
  0.00000000E+00  0.00000000E+00  0.00000000E+00
