fcc Cu (100)
  3.63
     2.5000000    -2.5000000     0.0000000
     2.5000000     2.5000000     0.0000000
     0.0000000     0.0000000     8.0000000
    Cu     C     H
   100     2     2
Selective Dynamics
Cartesian
     0.0000000     0.0000000     0.0000000  F  F  F  
     0.5000000    -0.5000000     0.0000000  F  F  F  
     1.0000000    -1.0000000     0.0000000  F  F  F  
     1.5000000    -1.5000000     0.0000000  F  F  F  
     2.0000000    -2.0000000     0.0000000  F  F  F  
     0.5000000     0.5000000     0.0000000  F  F  F  
     1.0000000     0.0000000     0.0000000  F  F  F  
     1.5000000    -0.5000000     0.0000000  F  F  F  
     2.0000000    -1.0000000     0.0000000  F  F  F  
     2.5000000    -1.5000000     0.0000000  F  F  F  
     1.0000000     1.0000000     0.0000000  F  F  F  
     1.5000000     0.5000000     0.0000000  F  F  F  
     2.0000000     0.0000000     0.0000000  F  F  F  
     2.5000000    -0.5000000     0.0000000  F  F  F  
     3.0000000    -1.0000000     0.0000000  F  F  F  
     1.5000000     1.5000000     0.0000000  F  F  F  
     2.0000000     1.0000000     0.0000000  F  F  F  
     2.5000000     0.5000000     0.0000000  F  F  F  
     3.0000000     0.0000000     0.0000000  F  F  F  
     3.5000000    -0.5000000     0.0000000  F  F  F  
     2.0000000     2.0000000     0.0000000  F  F  F  
     2.5000000     1.5000000     0.0000000  F  F  F  
     3.0000000     1.0000000     0.0000000  F  F  F  
     3.5000000     0.5000000     0.0000000  F  F  F  
     4.0000000     0.0000000     0.0000000  F  F  F  
     0.5000000     0.0000000     0.5000000  F  F  F  
     1.0000000    -0.5000000     0.5000000  F  F  F  
     1.5000000    -1.0000000     0.5000000  F  F  F  
     2.0000000    -1.5000000     0.5000000  F  F  F  
     2.5000000    -2.0000000     0.5000000  F  F  F  
     1.0000000     0.5000000     0.5000000  F  F  F  
     1.5000000     0.0000000     0.5000000  F  F  F  
     2.0000000    -0.5000000     0.5000000  F  F  F  
     2.5000000    -1.0000000     0.5000000  F  F  F  
     3.0000000    -1.5000000     0.5000000  F  F  F  
     1.5000000     1.0000000     0.5000000  F  F  F  
     2.0000000     0.5000000     0.5000000  F  F  F  
     2.5000000     0.0000000     0.5000000  F  F  F  
     3.0000000    -0.5000000     0.5000000  F  F  F  
     3.5000000    -1.0000000     0.5000000  F  F  F  
     2.0000000     1.5000000     0.5000000  F  F  F  
     2.5000000     1.0000000     0.5000000  F  F  F  
     3.0000000     0.5000000     0.5000000  F  F  F  
     3.5000000     0.0000000     0.5000000  F  F  F  
     4.0000000    -0.5000000     0.5000000  F  F  F  
     2.5000000     2.0000000     0.5000000  F  F  F  
     3.0000000     1.5000000     0.5000000  F  F  F  
     3.5000000     1.0000000     0.5000000  F  F  F  
     4.0000000     0.5000000     0.5000000  F  F  F  
     4.5000000     0.0000000     0.5000000  F  F  F  
     2.5000000    -2.4989405     1.0044654  T  T  T  
     0.5029469    -0.4952455     1.0027109  T  T  T  
     3.5000071     1.4986738     1.0024450  T  T  T  
     3.9956604     0.9946452     1.0044100  T  T  T  
     4.4992027     0.5000000     1.0060747  T  T  T  
     0.5007973     0.5000000     1.0060747  T  T  T  
     1.0043396     0.0053548     1.0044100  T  T  T  
     1.4999929    -0.4986738     1.0024450  T  T  T  
     1.9970531    -1.0047545     1.0027109  T  T  T  
     2.5000000    -1.5010595     1.0044654  T  T  T  
     1.0043396     0.9946452     1.0044100  T  T  T  
     1.5202157     0.5000000     1.0186450  T  T  T  
     2.0060220     0.0030966     1.0100117  T  T  T  
     2.5000000    -0.5043444     1.0024709  T  T  T  
     3.0029469    -1.0047545     1.0027109  T  T  T  
     1.4999929     1.4986738     1.0024450  T  T  T  
     2.0060220     0.9969034     1.0100117  T  T  T  
     2.5000000     0.5000000     0.9923110  T  T  T  
     2.9939780     0.0030966     1.0100117  T  T  T  
     3.5000071    -0.4986738     1.0024450  T  T  T  
     4.4970531    -0.4952455     1.0027109  T  T  T  
     2.5000000     1.5043444     1.0024709  T  T  T  
     2.9939780     0.9969034     1.0100117  T  T  T  
     3.4797843     0.5000000     1.0186450  T  T  T  
     3.9956604     0.0053548     1.0044100  T  T  T  
     0.5013671     0.0007675     1.4922501  T  T  T  
     1.0092379    -0.4916781     1.4907758  T  T  T  
     1.4907621    -1.0083219     1.4907758  T  T  T  
     1.9986329    -1.5007675     1.4922501  T  T  T  
     2.5000000    -2.0000000     1.4939978  T  T  T  
     1.0035153     0.5000000     1.4943756  T  T  T  
     1.5095731     0.0057812     1.4943907  T  T  T  
     1.9873497    -0.5147974     1.4881910  T  T  T  
     2.5000000    -0.9991781     1.4897518  T  T  T  
     3.0013671    -1.5007675     1.4922501  T  T  T  
     1.5095731     0.9942188     1.4943907  T  T  T  
     2.0361575     0.5000000     1.5468154  T  T  T  
     2.5000000    -0.0433115     1.5058515  T  T  T  
     3.0126503    -0.5147974     1.4881910  T  T  T  
     3.5092379    -1.0083219     1.4907758  T  T  T  
     1.9873497     1.5147974     1.4881910  T  T  T  
     2.5000000     1.0433115     1.5058515  T  T  T  
     2.9638425     0.5000000     1.5468154  T  T  T  
     3.4904269     0.0057812     1.4943907  T  T  T  
     3.9907621    -0.4916781     1.4907758  T  T  T  
     2.5000000     1.9991781     1.4897518  T  T  T  
     3.0126503     1.5147974     1.4881910  T  T  T  
     3.4904269     0.9942188     1.4943907  T  T  T  
     3.9964847     0.5000000     1.4943756  T  T  T  
     4.4986329     0.0007675     1.4922501  T  T  T  
     2.5000000     0.3109235     1.9098509  T  T  T  
     2.5000000     0.6890765     1.9098509  T  T  T  
     2.5000000     0.1609391     2.1735442  T  T  T  
     2.5000000     0.8390609     2.1735442  T  T  T  
