fcc Cu (100)                            
3.63
 2.5 -2.5    0
 2.5  2.5    0
   0    0    8
  Cu   C   H
 100   2   2
Selective Dynamics
Cartesian
   0  0  0  F  F  F  
    0.500000000000007  -0.500000000000007                   0  F  F  F  
    0.999999999999996  -0.999999999999996                   0  F  F  F  
    1.5  -1.5     0  F  F  F  
    1.99999999999999  -1.99999999999999                  0  F  F  F  
   0.500000000000007  0.500000000000007                  0  F  F  F  
   1.00000000000001                 0                 0  F  F  F  
                  1.5  -0.499999999999989                   0  F  F  F  
     2.00000000000001  -0.999999999999997                   0  F  F  F  
                 2.5  -1.49999999999999                  0  F  F  F  
   0.999999999999996  0.999999999999996                  0  F  F  F  
                 1.5  0.499999999999989                  0  F  F  F  
   1.99999999999999                 0                 0  F  F  F  
                  2.5  -0.500000000000007                   0  F  F  F  
     2.99999999999999  -0.999999999999996                   0  F  F  F  
   1.5  1.5    0  F  F  F  
    2.00000000000001  0.999999999999997                  0  F  F  F  
                 2.5  0.500000000000007                  0  F  F  F  
   3.00000000000001                 0                 0  F  F  F  
                  3.5  -0.499999999999989                   0  F  F  F  
   1.99999999999999  1.99999999999999                 0  F  F  F  
                2.5  1.49999999999999                 0  F  F  F  
    2.99999999999999  0.999999999999996                  0  F  F  F  
                 3.5  0.499999999999989                  0  F  F  F  
   3.99999999999999                 0                 0  F  F  F  
   0.500000000000007                  0                0.5  F  F  F  
   0.999999999999996  -0.49999999999999                0.5  F  F  F  
                  1.5  -0.999999999999996                 0.5  F  F  F  
   2.00000000000001              -1.5               0.5  F  F  F  
                 2.5  -1.99999999999999                0.5  F  F  F  
   0.999999999999996   0.49999999999999                0.5  F  F  F  
   1.49999999999999                 0               0.5  F  F  F  
     1.99999999999999  -0.500000000000007                 0.5  F  F  F  
                 2.5  -1.00000000000001                0.5  F  F  F  
   2.99999999999999              -1.5               0.5  F  F  F  
                 1.5  0.999999999999996                0.5  F  F  F  
    1.99999999999999  0.500000000000007                0.5  F  F  F  
   2.5    0  0.5  F  F  F  
     3.00000000000001  -0.500000000000007                 0.5  F  F  F  
                  3.5  -0.999999999999996                 0.5  F  F  F  
   2.00000000000001               1.5               0.5  F  F  F  
                2.5  1.00000000000001               0.5  F  F  F  
    3.00000000000001  0.500000000000007                0.5  F  F  F  
   3.50000000000001                 0               0.5  F  F  F  
                    4  -0.499999999999989                 0.5  F  F  F  
                2.5  1.99999999999999               0.5  F  F  F  
   2.99999999999999               1.5               0.5  F  F  F  
                 3.5  0.999999999999996                0.5  F  F  F  
                   4  0.499999999999989                0.5  F  F  F  
   4.49999999999999                 0               0.5  F  F  F  
                 2.5  -2.49894053267114   1.00446540234773  F  F  F  
     0.50294688007977  -0.495245484497808    1.00271093484034  F  F  F  
   3.50000706169768  1.49867375928857  1.00244503731489  F  F  F  
    3.99566040561415  0.994645186213399   1.00440998880229  F  F  F  
      4.499202719828  0.500000000000007   1.00607472879126  F  F  F  
   0.500797280172005  0.500000000000007   1.00607472879126  F  F  F  
      1.00433959438587  0.00535481378659752     1.00440998880229  F  F  F  
    1.49999293830232  -0.49867375928856   1.00244503731489  F  F  F  
   1.99705311992025  -1.0047545155022  1.00271093484034  F  F  F  
                 2.5  -1.50105946732884   1.00446540234773  F  F  F  
    1.00433959438585  0.994645186213399   1.00440998880229  F  F  F  
   1.52021568319776  0.49999999999999  1.01864496445518  F  F  F  
      2.00602203008975  0.00309659728484113     1.01001168691944  F  F  F  
     2.50000000000002  -0.504344422389305    1.00247090989492  F  F  F  
    3.00294688007975  -1.00475451550219   1.00271093484034  F  F  F  
   1.49999293830232  1.49867375928857  1.00244503731489  F  F  F  
    2.00602203008977  0.996903402715155   1.01001168691944  F  F  F  
                 2.5  0.500000000000007  0.992310988470218  F  F  F  
      2.99397796991024  0.00309659728484202     1.01001168691944  F  F  F  
     3.50000706169768  -0.498673759288559    1.00244503731489  F  F  F  
     4.49705311992023  -0.495245484497808    1.00271093484034  F  F  F  
   2.50000000000002  1.50434442238928  1.00247090989492  F  F  F  
    2.99397796991023  0.996903402715155   1.01001168691944  F  F  F  
     3.4797843168022  0.499999999999989   1.01864496445518  F  F  F  
      3.99566040561414  0.00535481378659775     1.00440998880229  F  F  F  
      0.501367114365945  0.000767511877098004      1.49225007298796  F  F  F  
     1.00923790289302  -0.491678077774708    1.49077583958573  F  F  F  
    1.49076209710698  -1.00832192222528   1.49077583958573  F  F  F  
   1.99863288563407  -1.5007675118771  1.49225007298796  F  F  F  
                 2.5  -1.99999999999999   1.49399783414504  F  F  F  
   1.00351529551556  0.49999999999999  1.49437561486421  F  F  F  
     1.50957306376378  0.0057811872400193    1.49439069450463  F  F  F  
     1.98734966632487  -0.514797355779933    1.48819099305941  F  F  F  
                  2.5  -0.999178051444209    1.48975177139275  F  F  F  
   3.00136711436593  -1.5007675118771  1.49225007298796  F  F  F  
     1.5095730637638  0.994218812759977   1.49439069450463  F  F  F  
     2.0361575499241  0.500000000000007   1.54681539759472  F  F  F  
                   2.5  -0.0433114543763495     1.50585153797209  F  F  F  
     3.01265033367513  -0.514797355779934    1.48819099305941  F  F  F  
    3.50923790289302  -1.00832192222528   1.49077583958573  F  F  F  
   1.98734966632488  1.51479735577993  1.48819099305941  F  F  F  
                2.5  1.04331145437636  1.50585153797209  F  F  F  
     2.9638424500759  0.500000000000007   1.54681539759472  F  F  F  
      3.49042693623623  0.00578118724003707     1.49439069450463  F  F  F  
     3.99076209710698  -0.491678077774708    1.49077583958573  F  F  F  
                2.5  1.99917805144419  1.48975177139275  F  F  F  
   3.01265033367512  1.51479735577993  1.48819099305941  F  F  F  
     3.4904269362362  0.994218812759977   1.49439069450463  F  F  F  
    3.99648470448444  0.499999999999989   1.49437561486421  F  F  F  
       4.49863288563405  0.000767511877097338      1.49225007298796  F  F  F  
                 2.5  0.310923464984918   1.90985090090821  F  F  F  
                 2.5  0.689076535015096   1.90985090090821  F  F  F  
                 2.5  0.160939050044524   2.17354419397175  F  F  F  
                2.5  0.83906094995549  2.17354419397175  F  F  F  
