fcc Cu (100)                            
3.63
 2.5 -2.5    0
 2.5  2.5    0
   0    0    8
  Cu   C   H
 100   2   2
Selective Dynamics
Direct
   0  0  0  F  F  F  
   0.200000000000003                  0                  0  F  F  F  
   0.399999999999999                  0                  0  F  F  F  
   0.600000000000001                  0                  0  F  F  F  
   0.799999999999997                  0                  0  F  F  F  
                   0  0.200000000000003                  0  F  F  F  
   0.200000000000003  0.200000000000003                  0  F  F  F  
   0.399999999999999  0.200000000000003                  0  F  F  F  
   0.600000000000001  0.200000000000003                  0  F  F  F  
   0.799999999999997  0.200000000000003                  0  F  F  F  
                   0  0.399999999999999                  0  F  F  F  
   0.200000000000003  0.399999999999999                  0  F  F  F  
   0.399999999999999  0.399999999999999                  0  F  F  F  
   0.600000000000001  0.399999999999999                  0  F  F  F  
   0.799999999999997  0.399999999999999                  0  F  F  F  
                   0  0.600000000000001                  0  F  F  F  
   0.200000000000003  0.600000000000001                  0  F  F  F  
   0.399999999999999  0.600000000000001                  0  F  F  F  
   0.600000000000001  0.600000000000001                  0  F  F  F  
   0.799999999999997  0.600000000000001                  0  F  F  F  
                   0  0.799999999999997                  0  F  F  F  
   0.200000000000003  0.799999999999997                  0  F  F  F  
   0.399999999999999  0.799999999999997                  0  F  F  F  
   0.600000000000001  0.799999999999997                  0  F  F  F  
   0.799999999999997  0.799999999999997                  0  F  F  F  
   0.100000000000001  0.100000000000001             0.0625  F  F  F  
   0.299999999999997  0.100000000000001             0.0625  F  F  F  
                 0.5  0.100000000000001             0.0625  F  F  F  
   0.700000000000003  0.100000000000001             0.0625  F  F  F  
   0.899999999999999  0.100000000000001             0.0625  F  F  F  
   0.100000000000001  0.299999999999997             0.0625  F  F  F  
   0.299999999999997  0.299999999999997             0.0625  F  F  F  
                 0.5  0.299999999999997             0.0625  F  F  F  
   0.700000000000003  0.299999999999997             0.0625  F  F  F  
   0.899999999999999  0.299999999999997             0.0625  F  F  F  
   0.100000000000001                0.5             0.0625  F  F  F  
   0.299999999999997                0.5             0.0625  F  F  F  
      0.5     0.5  0.0625  F  F  F  
   0.700000000000003                0.5             0.0625  F  F  F  
   0.899999999999999                0.5             0.0625  F  F  F  
   0.100000000000001  0.700000000000003             0.0625  F  F  F  
   0.299999999999997  0.700000000000003             0.0625  F  F  F  
                 0.5  0.700000000000003             0.0625  F  F  F  
   0.700000000000003  0.700000000000003             0.0625  F  F  F  
   0.899999999999999  0.700000000000003             0.0625  F  F  F  
   0.100000000000001  0.899999999999999             0.0625  F  F  F  
   0.299999999999997  0.899999999999999             0.0625  F  F  F  
                 0.5  0.899999999999999             0.0625  F  F  F  
   0.700000000000003  0.899999999999999             0.0625  F  F  F  
   0.899999999999999  0.899999999999999             0.0625  F  F  F  
    0.999788106534228  0.0002118934657718   0.125558175293467  F  F  F  
    0.199638472915516  0.0015402791163923   0.125338866855042  F  F  F  
    0.40026666048182   0.99973616419725  0.125305629664361  F  F  F  
   0.600203043880151   0.99806111836551  0.125551248600286  F  F  F  
   0.799840543965598  0.999840543965601  0.125759341098907  F  F  F  
   0.0001594560343995   0.200159456034402   0.125759341098907  F  F  F  
   0.199796956119854  0.201938881634493  0.125551248600286  F  F  F  
   0.399733339518177  0.200263835802753  0.125305629664361  F  F  F  
   0.600361527084489   0.19845972088361  0.125338866855042  F  F  F  
   0.800211893465769  0.199788106534231  0.125558175293467  F  F  F  
   0.0019388816344897    0.39979695611985   0.125551248600286  F  F  F  
   0.204043136639555   0.40404313663955  0.127330620556898  F  F  F  
   0.400585086560983  0.401823725474919   0.12625146086493  F  F  F  
   0.600868884477865  0.399131115522142  0.125308863736864  F  F  F  
   0.801540279116389  0.399638472915511  0.125338866855042  F  F  F  
   0.0002638358027501   0.599733339518179   0.125305629664361  F  F  F  
   0.201823725474924  0.600585086560985   0.12625146086493  F  F  F  
   0.399999999999999  0.600000000000001  0.124038873558777  F  F  F  
   0.598176274525081  0.599414913439017   0.12625146086493  F  F  F  
   0.799736164197247  0.600266660481823  0.125305629664361  F  F  F  
   0.998459720883608  0.800361527084484  0.125338866855042  F  F  F  
   0.199131115522147   0.80086888447786  0.125308863736864  F  F  F  
   0.399414913439014  0.798176274525076   0.12625146086493  F  F  F  
   0.595956863360443  0.795956863360438  0.127330620556898  F  F  F  
   0.798061118365508  0.800203043880147  0.125551248600286  F  F  F  
   0.100119920497769  0.100426925248609  0.186531259123494  F  F  F  
   0.300183196133546  0.103511965023663  0.186346979948216  F  F  F  
    0.499816803866451  0.0964880349763402   0.186346979948216  F  F  F  
    0.699880079502235  0.0995730747513941   0.186531259123494  F  F  F  
   0.899999999999999  0.100000000000001   0.18674972926813  F  F  F  
   0.100703059103114   0.30070305910311  0.186796951858027  F  F  F  
   0.300758375304753  0.303070850200761  0.186798836813078  F  F  F  
    0.50042940442096  0.294510462108987  0.186023874132426  F  F  F  
   0.699835610288842  0.300164389711158  0.186218971424094  F  F  F  
   0.900426925248606  0.300119920497765  0.186531259123494  F  F  F  
   0.103070850200765  0.500758375304756  0.186798836813078  F  F  F  
   0.307231509984819  0.507231509984822  0.193351924699341  F  F  F  
    0.50866229087527   0.49133770912473  0.188231442246512  F  F  F  
   0.705489537891013   0.49957059557904  0.186023874132426  F  F  F  
    0.90351196502366  0.500183196133549  0.186346979948216  F  F  F  
   0.0945104621089908   0.700429404420963   0.186023874132426  F  F  F  
   0.291337709124727  0.708662290875273  0.188231442246512  F  F  F  
   0.492768490015178  0.692768490015181  0.193351924699341  F  F  F  
   0.696929149799239  0.699241624695254  0.186798836813078  F  F  F  
   0.896488034976337  0.699816803866454  0.186346979948216  F  F  F  
   0.100164389711163  0.899835610288838  0.186218971424094  F  F  F  
   0.299570595579037  0.905489537891009  0.186023874132426  F  F  F  
   0.499241624695244  0.896929149799235  0.186798836813078  F  F  F  
    0.69929694089689  0.899296940896886  0.186796951858027  F  F  F  
   0.899573074751391   0.89988007950223  0.186531259123494  F  F  F  
   0.437815307003016  0.562184692996984  0.238731362613527  F  F  F  
   0.362184692996981  0.637815307003019  0.238731362613527  F  F  F  
   0.467812189991095  0.532187810008905  0.271693024246469  F  F  F  
   0.332187810008902  0.667812189991098  0.271693024246469  F  F  F  
