Title
1.0
    9.075000    -9.075000     0.000000
    9.075000     9.075000     0.000000
    0.000000     0.000000    29.040000
    Cu     C     H
   100     2     2
Direct
     0.0000000     0.0000000     0.0000000  !    Cu 
     0.2000000     0.0000000     0.0000000  !    Cu 
     0.4000000     0.0000000     0.0000000  !    Cu 
     0.6000000     0.0000000     0.0000000  !    Cu 
     0.8000000     0.0000000     0.0000000  !    Cu 
     0.0000000     0.2000000     0.0000000  !    Cu 
     0.2000000     0.2000000     0.0000000  !    Cu 
     0.4000000     0.2000000     0.0000000  !    Cu 
     0.6000000     0.2000000     0.0000000  !    Cu 
     0.8000000     0.2000000     0.0000000  !    Cu 
     0.0000000     0.4000000     0.0000000  !    Cu 
     0.2000000     0.4000000     0.0000000  !    Cu 
     0.4000000     0.4000000     0.0000000  !    Cu 
     0.6000000     0.4000000     0.0000000  !    Cu 
     0.8000000     0.4000000     0.0000000  !    Cu 
     0.0000000     0.6000000     0.0000000  !    Cu 
     0.2000000     0.6000000     0.0000000  !    Cu 
     0.4000000     0.6000000     0.0000000  !    Cu 
     0.6000000     0.6000000     0.0000000  !    Cu 
     0.8000000     0.6000000     0.0000000  !    Cu 
     0.0000000     0.8000000     0.0000000  !    Cu 
     0.2000000     0.8000000     0.0000000  !    Cu 
     0.4000000     0.8000000     0.0000000  !    Cu 
     0.6000000     0.8000000     0.0000000  !    Cu 
     0.8000000     0.8000000     0.0000000  !    Cu 
     0.1000000     0.1000000     0.0625000  !    Cu 
     0.3000000     0.1000000     0.0625000  !    Cu 
     0.5000000     0.1000000     0.0625000  !    Cu 
     0.7000000     0.1000000     0.0625000  !    Cu 
     0.9000000     0.1000000     0.0625000  !    Cu 
     0.1000000     0.3000000     0.0625000  !    Cu 
     0.3000000     0.3000000     0.0625000  !    Cu 
     0.5000000     0.3000000     0.0625000  !    Cu 
     0.7000000     0.3000000     0.0625000  !    Cu 
     0.9000000     0.3000000     0.0625000  !    Cu 
     0.1000000     0.5000000     0.0625000  !    Cu 
     0.3000000     0.5000000     0.0625000  !    Cu 
     0.5000000     0.5000000     0.0625000  !    Cu 
     0.7000000     0.5000000     0.0625000  !    Cu 
     0.9000000     0.5000000     0.0625000  !    Cu 
     0.1000000     0.7000000     0.0625000  !    Cu 
     0.3000000     0.7000000     0.0625000  !    Cu 
     0.5000000     0.7000000     0.0625000  !    Cu 
     0.7000000     0.7000000     0.0625000  !    Cu 
     0.9000000     0.7000000     0.0625000  !    Cu 
     0.1000000     0.9000000     0.0625000  !    Cu 
     0.3000000     0.9000000     0.0625000  !    Cu 
     0.5000000     0.9000000     0.0625000  !    Cu 
     0.7000000     0.9000000     0.0625000  !    Cu 
     0.9000000     0.9000000     0.0625000  !    Cu 
     0.9997879     0.0002121     0.1255582  !    Cu 
     0.1996386     0.0015405     0.1253388  !    Cu 
     0.4002667     0.9997366     0.1253058  !    Cu 
     0.6002033     0.9980612     0.1255513  !    Cu 
     0.7998408     0.9998408     0.1257593  !    Cu 
     0.0001592     0.2001592     0.1257593  !    Cu 
     0.1997967     0.2019388     0.1255513  !    Cu 
     0.3997333     0.2002634     0.1253058  !    Cu 
     0.6003614     0.1984595     0.1253388  !    Cu 
     0.8002121     0.1997879     0.1255582  !    Cu 
     0.0019388     0.3997967     0.1255513  !    Cu 
     0.2040430     0.4040430     0.1273306  !    Cu 
     0.4005851     0.4018237     0.1262514  !    Cu 
     0.6008689     0.3991311     0.1253089  !    Cu 
     0.8015405     0.3996386     0.1253388  !    Cu 
     0.0002634     0.5997333     0.1253058  !    Cu 
     0.2018237     0.6005851     0.1262514  !    Cu 
     0.4000000     0.6000000     0.1240389  !    Cu 
     0.5981763     0.5994149     0.1262514  !    Cu 
     0.7997366     0.6002667     0.1253058  !    Cu 
     0.9984595     0.8003614     0.1253388  !    Cu 
     0.1991311     0.8008689     0.1253089  !    Cu 
     0.3994149     0.7981763     0.1262514  !    Cu 
     0.5959570     0.7959570     0.1273306  !    Cu 
     0.7980612     0.8002033     0.1255513  !    Cu 
     0.1001196     0.1004270     0.1865313  !    Cu 
     0.3001829     0.1035118     0.1863471  !    Cu 
     0.4998171     0.0964882     0.1863471  !    Cu 
     0.6998804     0.0995730     0.1865313  !    Cu 
     0.9000000     0.1000000     0.1867497  !    Cu 
     0.1007030     0.3007030     0.1867968  !    Cu 
     0.3007581     0.3030711     0.1867989  !    Cu 
     0.5004292     0.2945107     0.1860238  !    Cu 
     0.6998358     0.3001642     0.1862190  !    Cu 
     0.9004270     0.3001196     0.1865313  !    Cu 
     0.1030711     0.5007581     0.1867989  !    Cu 
     0.3072314     0.5072314     0.1933519  !    Cu 
     0.5086623     0.4913377     0.1882314  !    Cu 
     0.7054893     0.4995708     0.1860238  !    Cu 
     0.9035118     0.5001829     0.1863471  !    Cu 
     0.0945107     0.7004292     0.1860238  !    Cu 
     0.2913377     0.7086623     0.1882314  !    Cu 
     0.4927686     0.6927686     0.1933519  !    Cu 
     0.6969289     0.6992419     0.1867989  !    Cu 
     0.8964882     0.6998171     0.1863471  !    Cu 
     0.1001642     0.8998358     0.1862190  !    Cu 
     0.2995708     0.9054893     0.1860238  !    Cu 
     0.4992419     0.8969289     0.1867989  !    Cu 
     0.6992970     0.8992970     0.1867968  !    Cu 
     0.8995730     0.8998804     0.1865313  !    Cu 
     0.4378154     0.5621846     0.2387314  !     C 
     0.3621846     0.6378154     0.2387314  !     C 
     0.4678121     0.5321879     0.2716932  !     H 
     0.3321879     0.6678121     0.2716932  !     H 

