BTO_P4mm_010_sc333 
1.0 
0.000000 11.997090 0.000000 
0.000000 0.000000 12.652440 
29.997575 0.000000 0.000000 
O Ti Ba 
81 27 27 
Selective Dynamics
Direct 
0.166667 0.163947 0.333279 T T T 
0.000000 0.163947 0.000000 T T T 
0.166667 0.323521 0.000000 T T T 
0.166667 0.163947 0.066656 T T T 
0.000000 0.163947 0.133312 T T T 
0.166667 0.323521 0.133312 T T T 
0.166667 0.163947 0.199968 T T T 
0.000000 0.163947 0.266624 T T T 
0.166667 0.323521 0.266624 T T T 
0.500000 0.163947 0.333279 T T T 
0.333333 0.163947 0.000000 T T T 
0.500000 0.323521 0.000000 T T T 
0.500000 0.163947 0.066656 T T T 
0.333333 0.163947 0.133312 T T T 
0.500000 0.323521 0.133312 T T T 
0.500000 0.163947 0.199968 T T T 
0.333333 0.163947 0.266624 T T T 
0.500000 0.323521 0.266624 T T T 
0.833333 0.163947 0.333279 T T T 
0.666667 0.163947 0.000000 T T T 
0.833333 0.323521 0.000000 T T T 
0.833333 0.163947 0.066656 T T T 
0.666667 0.163947 0.133312 T T T 
0.833333 0.323521 0.133312 T T T 
0.833333 0.163947 0.199968 T T T 
0.666667 0.163947 0.266624 T T T 
0.833333 0.323521 0.266624 T T T 
0.166667 0.497281 0.333279 T T T 
0.000000 0.497281 0.000000 T T T 
0.166667 0.656854 0.000000 T T T 
0.166667 0.497281 0.066656 T T T 
0.000000 0.497281 0.133312 T T T 
0.166667 0.656854 0.133312 T T T 
0.166667 0.497281 0.199968 T T T 
0.000000 0.497281 0.266624 T T T 
0.166667 0.656854 0.266624 T T T 
0.500000 0.497281 0.333279 T T T 
0.333333 0.497281 0.000000 T T T 
0.500000 0.656854 0.000000 T T T 
0.500000 0.497281 0.066656 T T T 
0.333333 0.497281 0.133312 T T T 
0.500000 0.656854 0.133312 T T T 
0.500000 0.497281 0.199968 T T T 
0.333333 0.497281 0.266624 T T T 
0.500000 0.656854 0.266624 T T T 
0.833333 0.497281 0.333279 T T T 
0.666667 0.497281 0.000000 T T T 
0.833333 0.656854 0.000000 T T T 
0.833333 0.497281 0.066656 T T T 
0.666667 0.497281 0.133312 T T T 
0.833333 0.656854 0.133312 T T T 
0.833333 0.497281 0.199968 T T T 
0.666667 0.497281 0.266624 T T T 
0.833333 0.656854 0.266624 T T T 
0.166667 0.830614 0.333279 T T T 
0.000000 0.830614 0.000000 T T T 
0.166667 0.990187 0.000000 T T T 
0.166667 0.830614 0.066656 T T T 
0.000000 0.830614 0.133312 T T T 
0.166667 0.990187 0.133312 T T T 
0.166667 0.830614 0.199968 T T T 
0.000000 0.830614 0.266624 T T T 
0.166667 0.990187 0.266624 T T T 
0.500000 0.830614 0.333279 T T T 
0.333333 0.830614 0.000000 T T T 
0.500000 0.990187 0.000000 T T T 
0.500000 0.830614 0.066656 T T T 
0.333333 0.830614 0.133312 T T T 
0.500000 0.990187 0.133312 T T T 
0.500000 0.830614 0.199968 T T T 
0.333333 0.830614 0.266624 T T T 
0.500000 0.990187 0.266624 T T T 
0.833333 0.830614 0.333279 T T T 
0.666667 0.830614 0.000000 T T T 
0.833333 0.990187 0.000000 T T T 
0.833333 0.830614 0.066656 T T T 
0.666667 0.830614 0.133312 T T T 
0.833333 0.990187 0.133312 T T T 
0.833333 0.830614 0.199968 T T T 
0.666667 0.830614 0.266624 T T T 
0.833333 0.990187 0.266624 T T T 
0.166667 0.179688 0.000000 T T T 
0.166667 0.179688 0.133312 T T T 
0.166667 0.179688 0.266624 T T T 
0.500000 0.179688 0.000000 T T T 
0.500000 0.179688 0.133312 T T T 
0.500000 0.179688 0.266624 T T T 
0.833333 0.179688 0.000000 T T T 
0.833333 0.179688 0.133312 T T T 
0.833333 0.179688 0.266624 T T T 
0.166667 0.513021 0.000000 T T T 
0.166667 0.513021 0.133312 T T T 
0.166667 0.513021 0.266624 T T T 
0.500000 0.513021 0.000000 T T T 
0.500000 0.513021 0.133312 T T T 
0.500000 0.513021 0.266624 T T T 
0.833333 0.513021 0.000000 T T T 
0.833333 0.513021 0.133312 T T T 
0.833333 0.513021 0.266624 T T T 
0.166667 0.846354 0.000000 T T T 
0.166667 0.846354 0.133312 T T T 
0.166667 0.846354 0.266624 T T T 
0.500000 0.846354 0.000000 T T T 
0.500000 0.846354 0.133312 T T T 
0.500000 0.846354 0.266624 T T T 
0.833333 0.846354 0.000000 T T T 
0.833333 0.846354 0.133312 T T T 
0.833333 0.846354 0.266624 T T T 
0.000000 0.006896 0.333279 T T T 
0.000000 0.006896 0.066656 T T T 
0.000000 0.006896 0.199968 T T T 
0.333333 0.006896 0.333279 T T T 
0.333333 0.006896 0.066656 T T T 
0.333333 0.006896 0.199968 T T T 
0.666667 0.006896 0.333279 T T T 
0.666667 0.006896 0.066656 T T T 
0.666667 0.006896 0.199968 T T T 
0.000000 0.340230 0.333279 T T T 
0.000000 0.340230 0.066656 T T T 
0.000000 0.340230 0.199968 T T T 
0.333333 0.340230 0.333279 T T T 
0.333333 0.340230 0.066656 T T T 
0.333333 0.340230 0.199968 T T T 
0.666667 0.340230 0.333279 T T T 
0.666667 0.340230 0.066656 T T T 
0.666667 0.340230 0.199968 T T T 
0.000000 0.673563 0.333279 T T T 
0.000000 0.673563 0.066656 T T T 
0.000000 0.673563 0.199968 T T T 
0.333333 0.673563 0.333279 T T T 
0.333333 0.673563 0.066656 T T T 
0.333333 0.673563 0.199968 T T T 
0.666667 0.673563 0.333279 T T T 
0.666667 0.673563 0.066656 T T T 
0.666667 0.673563 0.199968 T T T 
