BTO_P4mm_010_sc333
  1
     0.0000000    11.9970900     0.0000000
     0.0000000     0.0000000    12.6524400
    29.9975750     0.0000000     0.0000000
     O    Ti    Ba
    81    27    27
Selective Dynamics
Direct
     0.1666670     0.1639470     0.3332790  T  T  T  
     0.0000000     0.1639470     0.0000000  T  T  T  
     0.1666670     0.3235210     0.0000000  T  T  T  
     0.1666670     0.1639470     0.0666560  T  T  T  
     0.0000000     0.1639470     0.1333120  T  T  T  
     0.1666670     0.3235210     0.1333120  T  T  T  
     0.1666670     0.1639470     0.1999680  T  T  T  
     0.0000000     0.1639470     0.2666240  T  T  T  
     0.1666670     0.3235210     0.2666240  T  T  T  
     0.5000000     0.1639470     0.3332790  T  T  T  
     0.3333330     0.1639470     0.0000000  T  T  T  
     0.5000000     0.3235210     0.0000000  T  T  T  
     0.5000000     0.1639470     0.0666560  T  T  T  
     0.3333330     0.1639470     0.1333120  T  T  T  
     0.5000000     0.3235210     0.1333120  T  T  T  
     0.5000000     0.1639470     0.1999680  T  T  T  
     0.3333330     0.1639470     0.2666240  T  T  T  
     0.5000000     0.3235210     0.2666240  T  T  T  
     0.8333330     0.1639470     0.3332790  T  T  T  
     0.6666670     0.1639470     0.0000000  T  T  T  
     0.8333330     0.3235210     0.0000000  T  T  T  
     0.8333330     0.1639470     0.0666560  T  T  T  
     0.6666670     0.1639470     0.1333120  T  T  T  
     0.8333330     0.3235210     0.1333120  T  T  T  
     0.8333330     0.1639470     0.1999680  T  T  T  
     0.6666670     0.1639470     0.2666240  T  T  T  
     0.8333330     0.3235210     0.2666240  T  T  T  
     0.1666670     0.4972810     0.3332790  T  T  T  
     0.0000000     0.4972810     0.0000000  T  T  T  
     0.1666670     0.6568540     0.0000000  T  T  T  
     0.1666670     0.4972810     0.0666560  T  T  T  
     0.0000000     0.4972810     0.1333120  T  T  T  
     0.1666670     0.6568540     0.1333120  T  T  T  
     0.1666670     0.4972810     0.1999680  T  T  T  
     0.0000000     0.4972810     0.2666240  T  T  T  
     0.1666670     0.6568540     0.2666240  T  T  T  
     0.5000000     0.4972810     0.3332790  T  T  T  
     0.3333330     0.4972810     0.0000000  T  T  T  
     0.5000000     0.6568540     0.0000000  T  T  T  
     0.5000000     0.4972810     0.0666560  T  T  T  
     0.3333330     0.4972810     0.1333120  T  T  T  
     0.5000000     0.6568540     0.1333120  T  T  T  
     0.5000000     0.4972810     0.1999680  T  T  T  
     0.3333330     0.4972810     0.2666240  T  T  T  
     0.5000000     0.6568540     0.2666240  T  T  T  
     0.8333330     0.4972810     0.3332790  T  T  T  
     0.6666670     0.4972810     0.0000000  T  T  T  
     0.8333330     0.6568540     0.0000000  T  T  T  
     0.8333330     0.4972810     0.0666560  T  T  T  
     0.6666670     0.4972810     0.1333120  T  T  T  
     0.8333330     0.6568540     0.1333120  T  T  T  
     0.8333330     0.4972810     0.1999680  T  T  T  
     0.6666670     0.4972810     0.2666240  T  T  T  
     0.8333330     0.6568540     0.2666240  T  T  T  
     0.1666670     0.8306140     0.3332790  T  T  T  
     0.0000000     0.8306140     0.0000000  T  T  T  
     0.1666670     0.9901870     0.0000000  T  T  T  
     0.1666670     0.8306140     0.0666560  T  T  T  
     0.0000000     0.8306140     0.1333120  T  T  T  
     0.1666670     0.9901870     0.1333120  T  T  T  
     0.1666670     0.8306140     0.1999680  T  T  T  
     0.0000000     0.8306140     0.2666240  T  T  T  
     0.1666670     0.9901870     0.2666240  T  T  T  
     0.5000000     0.8306140     0.3332790  T  T  T  
     0.3333330     0.8306140     0.0000000  T  T  T  
     0.5000000     0.9901870     0.0000000  T  T  T  
     0.5000000     0.8306140     0.0666560  T  T  T  
     0.3333330     0.8306140     0.1333120  T  T  T  
     0.5000000     0.9901870     0.1333120  T  T  T  
     0.5000000     0.8306140     0.1999680  T  T  T  
     0.3333330     0.8306140     0.2666240  T  T  T  
     0.5000000     0.9901870     0.2666240  T  T  T  
     0.8333330     0.8306140     0.3332790  T  T  T  
     0.6666670     0.8306140     0.0000000  T  T  T  
     0.8333330     0.9901870     0.0000000  T  T  T  
     0.8333330     0.8306140     0.0666560  T  T  T  
     0.6666670     0.8306140     0.1333120  T  T  T  
     0.8333330     0.9901870     0.1333120  T  T  T  
     0.8333330     0.8306140     0.1999680  T  T  T  
     0.6666670     0.8306140     0.2666240  T  T  T  
     0.8333330     0.9901870     0.2666240  T  T  T  
     0.1666670     0.1796880     0.0000000  T  T  T  
     0.1666670     0.1796880     0.1333120  T  T  T  
     0.1666670     0.1796880     0.2666240  T  T  T  
     0.5000000     0.1796880     0.0000000  T  T  T  
     0.5000000     0.1796880     0.1333120  T  T  T  
     0.5000000     0.1796880     0.2666240  T  T  T  
     0.8333330     0.1796880     0.0000000  T  T  T  
     0.8333330     0.1796880     0.1333120  T  T  T  
     0.8333330     0.1796880     0.2666240  T  T  T  
     0.1666670     0.5130210     0.0000000  T  T  T  
     0.1666670     0.5130210     0.1333120  T  T  T  
     0.1666670     0.5130210     0.2666240  T  T  T  
     0.5000000     0.5130210     0.0000000  T  T  T  
     0.5000000     0.5130210     0.1333120  T  T  T  
     0.5000000     0.5130210     0.2666240  T  T  T  
     0.8333330     0.5130210     0.0000000  T  T  T  
     0.8333330     0.5130210     0.1333120  T  T  T  
     0.8333330     0.5130210     0.2666240  T  T  T  
     0.1666670     0.8463540     0.0000000  T  T  T  
     0.1666670     0.8463540     0.1333120  T  T  T  
     0.1666670     0.8463540     0.2666240  T  T  T  
     0.5000000     0.8463540     0.0000000  T  T  T  
     0.5000000     0.8463540     0.1333120  T  T  T  
     0.5000000     0.8463540     0.2666240  T  T  T  
     0.8333330     0.8463540     0.0000000  T  T  T  
     0.8333330     0.8463540     0.1333120  T  T  T  
     0.8333330     0.8463540     0.2666240  T  T  T  
     0.0000000     0.0068960     0.3332790  T  T  T  
     0.0000000     0.0068960     0.0666560  T  T  T  
     0.0000000     0.0068960     0.1999680  T  T  T  
     0.3333330     0.0068960     0.3332790  T  T  T  
     0.3333330     0.0068960     0.0666560  T  T  T  
     0.3333330     0.0068960     0.1999680  T  T  T  
     0.6666670     0.0068960     0.3332790  T  T  T  
     0.6666670     0.0068960     0.0666560  T  T  T  
     0.6666670     0.0068960     0.1999680  T  T  T  
     0.0000000     0.3402300     0.3332790  T  T  T  
     0.0000000     0.3402300     0.0666560  T  T  T  
     0.0000000     0.3402300     0.1999680  T  T  T  
     0.3333330     0.3402300     0.3332790  T  T  T  
     0.3333330     0.3402300     0.0666560  T  T  T  
     0.3333330     0.3402300     0.1999680  T  T  T  
     0.6666670     0.3402300     0.3332790  T  T  T  
     0.6666670     0.3402300     0.0666560  T  T  T  
     0.6666670     0.3402300     0.1999680  T  T  T  
     0.0000000     0.6735630     0.3332790  T  T  T  
     0.0000000     0.6735630     0.0666560  T  T  T  
     0.0000000     0.6735630     0.1999680  T  T  T  
     0.3333330     0.6735630     0.3332790  T  T  T  
     0.3333330     0.6735630     0.0666560  T  T  T  
     0.3333330     0.6735630     0.1999680  T  T  T  
     0.6666670     0.6735630     0.3332790  T  T  T  
     0.6666670     0.6735630     0.0666560  T  T  T  
     0.6666670     0.6735630     0.1999680  T  T  T  
