BTO_P4mm_010_sc333
  1
     0.0000000    11.9970900     0.0000000
     0.0000000     0.0000000    12.6524400
    29.9975750     0.0000000     0.0000000
     O    Ti    Ba
    81    27    27
Selective Dynamics
Cartesian
     9.9975618     1.9995190     2.0743296  T  T  T  
     0.0000000     0.0000000     2.0743296  T  T  T  
     0.0000000     1.9995190     4.0933300  T  T  T  
     1.9995184     1.9995190     2.0743296  T  T  T  
     3.9990367     0.0000000     2.0743296  T  T  T  
     3.9990367     1.9995190     4.0933300  T  T  T  
     5.9985551     1.9995190     2.0743296  T  T  T  
     7.9980734     0.0000000     2.0743296  T  T  T  
     7.9980734     1.9995190     4.0933300  T  T  T  
     9.9975618     5.9985450     2.0743296  T  T  T  
     0.0000000     3.9990260     2.0743296  T  T  T  
     0.0000000     5.9985450     4.0933300  T  T  T  
     1.9995184     5.9985450     2.0743296  T  T  T  
     3.9990367     3.9990260     2.0743296  T  T  T  
     3.9990367     5.9985450     4.0933300  T  T  T  
     5.9985551     5.9985450     2.0743296  T  T  T  
     7.9980734     3.9990260     2.0743296  T  T  T  
     7.9980734     5.9985450     4.0933300  T  T  T  
     9.9975618     9.9975710     2.0743296  T  T  T  
     0.0000000     7.9980640     2.0743296  T  T  T  
     0.0000000     9.9975710     4.0933300  T  T  T  
     1.9995184     9.9975710     2.0743296  T  T  T  
     3.9990367     7.9980640     2.0743296  T  T  T  
     3.9990367     9.9975710     4.0933300  T  T  T  
     5.9985551     9.9975710     2.0743296  T  T  T  
     7.9980734     7.9980640     2.0743296  T  T  T  
     7.9980734     9.9975710     4.0933300  T  T  T  
     9.9975618     1.9995190     6.2918180  T  T  T  
     0.0000000     0.0000000     6.2918180  T  T  T  
     0.0000000     1.9995190     8.3108058  T  T  T  
     1.9995184     1.9995190     6.2918180  T  T  T  
     3.9990367     0.0000000     6.2918180  T  T  T  
     3.9990367     1.9995190     8.3108058  T  T  T  
     5.9985551     1.9995190     6.2918180  T  T  T  
     7.9980734     0.0000000     6.2918180  T  T  T  
     7.9980734     1.9995190     8.3108058  T  T  T  
     9.9975618     5.9985450     6.2918180  T  T  T  
     0.0000000     3.9990260     6.2918180  T  T  T  
     0.0000000     5.9985450     8.3108058  T  T  T  
     1.9995184     5.9985450     6.2918180  T  T  T  
     3.9990367     3.9990260     6.2918180  T  T  T  
     3.9990367     5.9985450     8.3108058  T  T  T  
     5.9985551     5.9985450     6.2918180  T  T  T  
     7.9980734     3.9990260     6.2918180  T  T  T  
     7.9980734     5.9985450     8.3108058  T  T  T  
     9.9975618     9.9975710     6.2918180  T  T  T  
     0.0000000     7.9980640     6.2918180  T  T  T  
     0.0000000     9.9975710     8.3108058  T  T  T  
     1.9995184     9.9975710     6.2918180  T  T  T  
     3.9990367     7.9980640     6.2918180  T  T  T  
     3.9990367     9.9975710     8.3108058  T  T  T  
     5.9985551     9.9975710     6.2918180  T  T  T  
     7.9980734     7.9980640     6.2918180  T  T  T  
     7.9980734     9.9975710     8.3108058  T  T  T  
     9.9975618     1.9995190    10.5092938  T  T  T  
     0.0000000     0.0000000    10.5092938  T  T  T  
     0.0000000     1.9995190    12.5282816  T  T  T  
     1.9995184     1.9995190    10.5092938  T  T  T  
     3.9990367     0.0000000    10.5092938  T  T  T  
     3.9990367     1.9995190    12.5282816  T  T  T  
     5.9985551     1.9995190    10.5092938  T  T  T  
     7.9980734     0.0000000    10.5092938  T  T  T  
     7.9980734     1.9995190    12.5282816  T  T  T  
     9.9975618     5.9985450    10.5092938  T  T  T  
     0.0000000     3.9990260    10.5092938  T  T  T  
     0.0000000     5.9985450    12.5282816  T  T  T  
     1.9995184     5.9985450    10.5092938  T  T  T  
     3.9990367     3.9990260    10.5092938  T  T  T  
     3.9990367     5.9985450    12.5282816  T  T  T  
     5.9985551     5.9985450    10.5092938  T  T  T  
     7.9980734     3.9990260    10.5092938  T  T  T  
     7.9980734     5.9985450    12.5282816  T  T  T  
     9.9975618     9.9975710    10.5092938  T  T  T  
     0.0000000     7.9980640    10.5092938  T  T  T  
     0.0000000     9.9975710    12.5282816  T  T  T  
     1.9995184     9.9975710    10.5092938  T  T  T  
     3.9990367     7.9980640    10.5092938  T  T  T  
     3.9990367     9.9975710    12.5282816  T  T  T  
     5.9985551     9.9975710    10.5092938  T  T  T  
     7.9980734     7.9980640    10.5092938  T  T  T  
     7.9980734     9.9975710    12.5282816  T  T  T  
     0.0000000     1.9995190     2.2734916  T  T  T  
     3.9990367     1.9995190     2.2734916  T  T  T  
     7.9980734     1.9995190     2.2734916  T  T  T  
     0.0000000     5.9985450     2.2734916  T  T  T  
     3.9990367     5.9985450     2.2734916  T  T  T  
     7.9980734     5.9985450     2.2734916  T  T  T  
     0.0000000     9.9975710     2.2734916  T  T  T  
     3.9990367     9.9975710     2.2734916  T  T  T  
     7.9980734     9.9975710     2.2734916  T  T  T  
     0.0000000     1.9995190     6.4909674  T  T  T  
     3.9990367     1.9995190     6.4909674  T  T  T  
     7.9980734     1.9995190     6.4909674  T  T  T  
     0.0000000     5.9985450     6.4909674  T  T  T  
     3.9990367     5.9985450     6.4909674  T  T  T  
     7.9980734     5.9985450     6.4909674  T  T  T  
     0.0000000     9.9975710     6.4909674  T  T  T  
     3.9990367     9.9975710     6.4909674  T  T  T  
     7.9980734     9.9975710     6.4909674  T  T  T  
     0.0000000     1.9995190    10.7084432  T  T  T  
     3.9990367     1.9995190    10.7084432  T  T  T  
     7.9980734     1.9995190    10.7084432  T  T  T  
     0.0000000     5.9985450    10.7084432  T  T  T  
     3.9990367     5.9985450    10.7084432  T  T  T  
     7.9980734     5.9985450    10.7084432  T  T  T  
     0.0000000     9.9975710    10.7084432  T  T  T  
     3.9990367     9.9975710    10.7084432  T  T  T  
     7.9980734     9.9975710    10.7084432  T  T  T  
     9.9975618     0.0000000     0.0872512  T  T  T  
     1.9995184     0.0000000     0.0872512  T  T  T  
     5.9985551     0.0000000     0.0872512  T  T  T  
     9.9975618     3.9990260     0.0872512  T  T  T  
     1.9995184     3.9990260     0.0872512  T  T  T  
     5.9985551     3.9990260     0.0872512  T  T  T  
     9.9975618     7.9980640     0.0872512  T  T  T  
     1.9995184     7.9980640     0.0872512  T  T  T  
     5.9985551     7.9980640     0.0872512  T  T  T  
     9.9975618     0.0000000     4.3047397  T  T  T  
     1.9995184     0.0000000     4.3047397  T  T  T  
     5.9985551     0.0000000     4.3047397  T  T  T  
     9.9975618     3.9990260     4.3047397  T  T  T  
     1.9995184     3.9990260     4.3047397  T  T  T  
     5.9985551     3.9990260     4.3047397  T  T  T  
     9.9975618     7.9980640     4.3047397  T  T  T  
     1.9995184     7.9980640     4.3047397  T  T  T  
     5.9985551     7.9980640     4.3047397  T  T  T  
     9.9975618     0.0000000     8.5222154  T  T  T  
     1.9995184     0.0000000     8.5222154  T  T  T  
     5.9985551     0.0000000     8.5222154  T  T  T  
     9.9975618     3.9990260     8.5222154  T  T  T  
     1.9995184     3.9990260     8.5222154  T  T  T  
     5.9985551     3.9990260     8.5222154  T  T  T  
     9.9975618     7.9980640     8.5222154  T  T  T  
     1.9995184     7.9980640     8.5222154  T  T  T  
     5.9985551     7.9980640     8.5222154  T  T  T  
