 Si 
5.403
     0.0000000000000000    0.5000000000000000    0.5000000000000000
     0.5000000000000000    0.0000000000000000    0.5000000000000000
     0.5000000000000000    0.5000000000000000    0.0000000000000000
     Si
     2 
Direct
  0.0000000000000000  0.0000000000000000  0.0000000000000000
  0.25000000000000000  0.25000000000000000  0.25000000000000000
