Mn3O4_mp-18759_conventional_standard\(1\0\1)\(2)
1.0
       11.2437000275         0.0000000000         0.0000000000
        0.0000000000         5.8751997948         0.0000000000
        0.0000000000         0.0000000000        20.5837001801
   Mn    O
   22   26
Direct
     0.383830011         0.429879993         0.204070002
     0.565569997         0.929880023         0.143230006
     0.838609993         0.929880023         0.386590004
     0.338180006         0.179879993         0.051970001
     0.611220002         0.179879993         0.295329988
     0.588180006         0.429879993         0.051970001
     0.861220002         0.429879993         0.295329988
     0.724699974         0.429879993         0.173649997
     0.997739971         0.429879993         0.417010009
     0.338180006         0.679880023         0.051970001
     0.611220002         0.679880023         0.295329988
     0.883830011         0.929880023         0.204070002
     0.065569997         0.429879993         0.143230006
     0.338609993         0.429879993         0.386590004
     0.838180006         0.679880023         0.051970001
     0.111220002         0.679880023         0.295329988
     0.088179998         0.929880023         0.051970001
     0.361220002         0.929880023         0.295329988
     0.224700004         0.929880023         0.173649997
     0.497740000         0.929880023         0.417010009
     0.838180006         0.179879993         0.051970001
     0.111220002         0.179879993         0.295329988
     0.404040009         0.429879993         0.103940003
     0.677079976         0.429879993         0.347299993
     0.787469983         0.208780006         0.236330003
     0.161929995         0.708779991         0.110969998
     0.434980005         0.708779991         0.354330003
     0.161929995         0.150979996         0.110969998
     0.434980005         0.150979996         0.354330003
     0.393059999         0.929880023         0.107610002
     0.666100025         0.929880023         0.350980014
     0.272320002         0.929880023         0.000000000
     0.545360029         0.929880023         0.243359998
     0.556349993         0.429879993         0.239690006
     0.787469983         0.650979996         0.236330003
     0.904039979         0.929880023         0.103940003
     0.177080005         0.929880023         0.347299993
     0.287470013         0.708779991         0.236330003
     0.661930025         0.208780006         0.110969998
     0.934979975         0.208780006         0.354330003
     0.661930025         0.650979996         0.110969998
     0.934979975         0.650979996         0.354330003
     0.893060029         0.429879993         0.107610002
     0.166099995         0.429879993         0.350980014
     0.772319973         0.429879993         0.000000000
     0.045359999         0.429879993         0.243359998
     0.056350000         0.929880023         0.239690006
     0.287470013         0.150979996         0.236330003
