Mn3O4_mp-18759_conventional_standard\(1\0\1)\(2)
  1
    11.2437000     0.0000000     0.0000000
     0.0000000     5.8751998     0.0000000
     0.0000000     0.0000000    20.5837002
    Mn     O
    22    26
Direct
     0.3838300     0.4298800     0.2040700  
     0.5655700     0.9298800     0.1432300  
     0.8386100     0.9298800     0.3865900  
     0.3381800     0.1798800     0.0519700  
     0.6112200     0.1798800     0.2953300  
     0.5881800     0.4298800     0.0519700  
     0.8612200     0.4298800     0.2953300  
     0.7247000     0.4298800     0.1736500  
     0.9977400     0.4298800     0.4170100  
     0.3381800     0.6798800     0.0519700  
     0.6112200     0.6798800     0.2953300  
     0.8838300     0.9298800     0.2040700  
     0.0655700     0.4298800     0.1432300  
     0.3386100     0.4298800     0.3865900  
     0.8381800     0.6798800     0.0519700  
     0.1112200     0.6798800     0.2953300  
     0.0881800     0.9298800     0.0519700  
     0.3612200     0.9298800     0.2953300  
     0.2247000     0.9298800     0.1736500  
     0.4977400     0.9298800     0.4170100  
     0.8381800     0.1798800     0.0519700  
     0.1112200     0.1798800     0.2953300  
     0.4040400     0.4298800     0.1039400  
     0.6770800     0.4298800     0.3473000  
     0.7874700     0.2087800     0.2363300  
     0.1619300     0.7087800     0.1109700  
     0.4349800     0.7087800     0.3543300  
     0.1619300     0.1509800     0.1109700  
     0.4349800     0.1509800     0.3543300  
     0.3930600     0.9298800     0.1076100  
     0.6661000     0.9298800     0.3509800  
     0.2723200     0.9298800     0.0000000  
     0.5453600     0.9298800     0.2433600  
     0.5563500     0.4298800     0.2396900  
     0.7874700     0.6509800     0.2363300  
     0.9040400     0.9298800     0.1039400  
     0.1770800     0.9298800     0.3473000  
     0.2874700     0.7087800     0.2363300  
     0.6619300     0.2087800     0.1109700  
     0.9349800     0.2087800     0.3543300  
     0.6619300     0.6509800     0.1109700  
     0.9349800     0.6509800     0.3543300  
     0.8930600     0.4298800     0.1076100  
     0.1661000     0.4298800     0.3509800  
     0.7723200     0.4298800     0.0000000  
     0.0453600     0.4298800     0.2433600  
     0.0563500     0.9298800     0.2396900  
     0.2874700     0.1509800     0.2363300  
