Mn3O4_mp-18759_conventional_standard\(1\0\1)\(2)
  1
    11.2437000     0.0000000     0.0000000
     0.0000000     5.8751998     0.0000000
     0.0000000     0.0000000    20.5837002
    Mn     O
    22    26
Cartesian
     4.3156695     2.5256308     4.2005157  
     6.3590994     5.4632309     2.9482035  
     9.4290792     5.4632309     7.9574527  
     3.8023945     1.0568309     1.0697349  
     6.8723744     1.0568309     6.0789839  
     6.6133195     2.5256308     1.0697349  
     9.6832994     2.5256308     6.0789839  
     8.1483091     2.5256308     3.5743595  
    11.2182889     2.5256308     8.5836090  
     3.8023945     3.9944310     1.0697349  
     6.8723744     3.9944310     6.0789839  
     9.9375195     5.4632309     4.2005157  
     0.7372494     2.5256308     2.9482035  
     3.8072292     2.5256308     7.9574527  
     9.4242446     3.9944310     1.0697349  
     1.2505243     3.9944310     6.0789839  
     0.9914694     5.4632309     1.0697349  
     4.0614493     5.4632309     6.0789839  
     2.5264594     5.4632309     3.5743595  
     5.5964393     5.4632309     8.5836090  
     9.4242446     1.0568309     1.0697349  
     1.2505243     1.0568309     6.0789839  
     4.5429047     2.5256308     2.1394699  
     7.6128841     2.5256308     7.1487189  
     8.8540763     1.2266242     4.8645459  
     1.8206923     4.1642241     2.2841732  
     4.8907847     4.1642241     7.2934225  
     1.8206923     0.8870376     2.2841732  
     4.8907847     0.8870376     7.2934225  
     4.4194487     5.4632309     2.2150120  
     7.4894289     5.4632309     7.2244674  
     3.0618844     5.4632309     0.0000000  
     6.1318646     5.4632309     5.0092492  
     6.2554324     2.5256308     4.9337072  
     8.8540763     3.8246375     4.8645459  
    10.1647543     5.4632309     2.1394699  
     1.9910345     5.4632309     7.1487189  
     3.2322266     4.1642241     4.8645459  
     7.4425426     1.2266242     2.2841732  
    10.5126344     1.2266242     7.2934225  
     7.4425426     3.8246375     2.2841732  
    10.5126344     3.8246375     7.2934225  
    10.0412991     2.5256308     2.2150120  
     1.8675785     2.5256308     7.2244674  
     8.6837341     2.5256308     0.0000000  
     0.5100142     2.5256308     5.0092492  
     0.6335825     5.4632309     4.9337072  
     3.2322266     0.8870376     4.8645459  
